&control
calculation = 'bands',
prefix = 'cspbcl3',
verbosity = 'high' ,
pseudo_dir='../pseudopotentials'
outdir = '.'
/
&system
ibrav = 0 ,
nat = 5,
ntyp = 3,
ecutwfc = 20,
nbnd = 300
noncolin= .TRUE.,
lspinorb= .TRUE.,
starting_magnetization=0.0
/
&electrons
/
K_POINTS crystal
   10
  0.000000000  0.000000000  0.000000000   1.0
  0.000000000  0.000000000  0.250000000   6.0
  0.000000000  0.000000000  0.500000000   3.0
  0.000000000  0.250000000  0.250000000  12.0
  0.000000000  0.250000000  0.500000000  12.0
  0.000000000  0.500000000  0.500000000   3.0
  0.250000000  0.250000000  0.250000000   8.0
  0.250000000  0.250000000  0.500000000  12.0
  0.250000000  0.500000000  0.500000000   6.0
  0.500000000  0.500000000  0.500000000   1.0
ATOMIC_SPECIES
Cs 1 Cs.upf
Pb 1 Pb.upf
Cl 1 Cl.upf
CELL_PARAMETERS angstrom
   5.599   0.000000000   0.000000000
   0.000000000   5.599   0.000000000
   0.000000000   0.000000000   5.599
ATOMIC_POSITIONS crystal
Cs      0.500000000         0.500000000         0.500000000
Pb      0.000000000         0.000000000         0.000000000
Cl      0.500000000         0.000000000         0.000000000
Cl      0.000000000         0.500000000         0.000000000
Cl      0.000000000         0.000000000         0.500000000
