&control
   prefix = 'Si'
   pseudo_dir = '../../pseudos'
   calculation = 'bands'
/
&system
   ecutwfc = 140.0
   ibrav = 0
   nat = 2
   ntyp = 1
   nbnd = 400
   celldm(1) = 1.0
/
&electrons
   electron_maxstep = 100
   conv_thr = 1e-10
   mixing_mode = 'plain'
   mixing_beta = 0.7
   mixing_ndim = 8
   diagonalization = 'david'
   diago_david_ndim = 4
   diago_full_acc = .true.
/
CELL_PARAMETERS alat
   0.0 5.1452763 5.1452763
   5.1452763 0.0 5.1452763
   5.1452763 5.1452763 0.0
ATOMIC_SPECIES 
   Si 28.0855 'Si.upf'
ATOMIC_POSITIONS angstrom
   Si 0.0 0.0 0.0
   Si 1.3609255925     4.0827767775     4.0827767775
K_POINTS crystal
   216
   0.0 0.0 0.0 1.0
   0.0 0.0 0.16666666666666666 1.0
   0.0 0.0 0.3333333333333333 1.0
   0.0 0.0 0.5 1.0
   0.0 0.0 0.6666666666666666 1.0
   0.0 0.0 0.8333333333333334 1.0
   0.0 0.16666666666666666 0.0 1.0
   0.0 0.16666666666666666 0.16666666666666666 1.0
   0.0 0.16666666666666666 0.3333333333333333 1.0
   0.0 0.16666666666666666 0.5 1.0
   0.0 0.16666666666666666 0.6666666666666666 1.0
   0.0 0.16666666666666666 0.8333333333333334 1.0
   0.0 0.3333333333333333 0.0 1.0
   0.0 0.3333333333333333 0.16666666666666666 1.0
   0.0 0.3333333333333333 0.3333333333333333 1.0
   0.0 0.3333333333333333 0.5 1.0
   0.0 0.3333333333333333 0.6666666666666666 1.0
   0.0 0.3333333333333333 0.8333333333333334 1.0
   0.0 0.5 0.0 1.0
   0.0 0.5 0.16666666666666666 1.0
   0.0 0.5 0.3333333333333333 1.0
   0.0 0.5 0.5 1.0
   0.0 0.5 0.6666666666666666 1.0
   0.0 0.5 0.8333333333333334 1.0
   0.0 0.6666666666666666 0.0 1.0
   0.0 0.6666666666666666 0.16666666666666666 1.0
   0.0 0.6666666666666666 0.3333333333333333 1.0
   0.0 0.6666666666666666 0.5 1.0
   0.0 0.6666666666666666 0.6666666666666666 1.0
   0.0 0.6666666666666666 0.8333333333333334 1.0
   0.0 0.8333333333333334 0.0 1.0
   0.0 0.8333333333333334 0.16666666666666666 1.0
   0.0 0.8333333333333334 0.3333333333333333 1.0
   0.0 0.8333333333333334 0.5 1.0
   0.0 0.8333333333333334 0.6666666666666666 1.0
   0.0 0.8333333333333334 0.8333333333333334 1.0
   0.16666666666666666 0.0 0.0 1.0
   0.16666666666666666 0.0 0.16666666666666666 1.0
   0.16666666666666666 0.0 0.3333333333333333 1.0
   0.16666666666666666 0.0 0.5 1.0
   0.16666666666666666 0.0 0.6666666666666666 1.0
   0.16666666666666666 0.0 0.8333333333333334 1.0
   0.16666666666666666 0.16666666666666666 0.0 1.0
   0.16666666666666666 0.16666666666666666 0.16666666666666666 1.0
   0.16666666666666666 0.16666666666666666 0.3333333333333333 1.0
   0.16666666666666666 0.16666666666666666 0.5 1.0
   0.16666666666666666 0.16666666666666666 0.6666666666666666 1.0
   0.16666666666666666 0.16666666666666666 0.8333333333333334 1.0
   0.16666666666666666 0.3333333333333333 0.0 1.0
   0.16666666666666666 0.3333333333333333 0.16666666666666666 1.0
   0.16666666666666666 0.3333333333333333 0.3333333333333333 1.0
   0.16666666666666666 0.3333333333333333 0.5 1.0
   0.16666666666666666 0.3333333333333333 0.6666666666666666 1.0
   0.16666666666666666 0.3333333333333333 0.8333333333333334 1.0
   0.16666666666666666 0.5 0.0 1.0
   0.16666666666666666 0.5 0.16666666666666666 1.0
   0.16666666666666666 0.5 0.3333333333333333 1.0
   0.16666666666666666 0.5 0.5 1.0
   0.16666666666666666 0.5 0.6666666666666666 1.0
   0.16666666666666666 0.5 0.8333333333333334 1.0
   0.16666666666666666 0.6666666666666666 0.0 1.0
   0.16666666666666666 0.6666666666666666 0.16666666666666666 1.0
   0.16666666666666666 0.6666666666666666 0.3333333333333333 1.0
   0.16666666666666666 0.6666666666666666 0.5 1.0
   0.16666666666666666 0.6666666666666666 0.6666666666666666 1.0
   0.16666666666666666 0.6666666666666666 0.8333333333333334 1.0
   0.16666666666666666 0.8333333333333334 0.0 1.0
   0.16666666666666666 0.8333333333333334 0.16666666666666666 1.0
   0.16666666666666666 0.8333333333333334 0.3333333333333333 1.0
   0.16666666666666666 0.8333333333333334 0.5 1.0
   0.16666666666666666 0.8333333333333334 0.6666666666666666 1.0
   0.16666666666666666 0.8333333333333334 0.8333333333333334 1.0
   0.3333333333333333 0.0 0.0 1.0
   0.3333333333333333 0.0 0.16666666666666666 1.0
   0.3333333333333333 0.0 0.3333333333333333 1.0
   0.3333333333333333 0.0 0.5 1.0
   0.3333333333333333 0.0 0.6666666666666666 1.0
   0.3333333333333333 0.0 0.8333333333333334 1.0
   0.3333333333333333 0.16666666666666666 0.0 1.0
   0.3333333333333333 0.16666666666666666 0.16666666666666666 1.0
   0.3333333333333333 0.16666666666666666 0.3333333333333333 1.0
   0.3333333333333333 0.16666666666666666 0.5 1.0
   0.3333333333333333 0.16666666666666666 0.6666666666666666 1.0
   0.3333333333333333 0.16666666666666666 0.8333333333333334 1.0
   0.3333333333333333 0.3333333333333333 0.0 1.0
   0.3333333333333333 0.3333333333333333 0.16666666666666666 1.0
   0.3333333333333333 0.3333333333333333 0.3333333333333333 1.0
   0.3333333333333333 0.3333333333333333 0.5 1.0
   0.3333333333333333 0.3333333333333333 0.6666666666666666 1.0
   0.3333333333333333 0.3333333333333333 0.8333333333333334 1.0
   0.3333333333333333 0.5 0.0 1.0
   0.3333333333333333 0.5 0.16666666666666666 1.0
   0.3333333333333333 0.5 0.3333333333333333 1.0
   0.3333333333333333 0.5 0.5 1.0
   0.3333333333333333 0.5 0.6666666666666666 1.0
   0.3333333333333333 0.5 0.8333333333333334 1.0
   0.3333333333333333 0.6666666666666666 0.0 1.0
   0.3333333333333333 0.6666666666666666 0.16666666666666666 1.0
   0.3333333333333333 0.6666666666666666 0.3333333333333333 1.0
   0.3333333333333333 0.6666666666666666 0.5 1.0
   0.3333333333333333 0.6666666666666666 0.6666666666666666 1.0
   0.3333333333333333 0.6666666666666666 0.8333333333333334 1.0
   0.3333333333333333 0.8333333333333334 0.0 1.0
   0.3333333333333333 0.8333333333333334 0.16666666666666666 1.0
   0.3333333333333333 0.8333333333333334 0.3333333333333333 1.0
   0.3333333333333333 0.8333333333333334 0.5 1.0
   0.3333333333333333 0.8333333333333334 0.6666666666666666 1.0
   0.3333333333333333 0.8333333333333334 0.8333333333333334 1.0
   0.5 0.0 0.0 1.0
   0.5 0.0 0.16666666666666666 1.0
   0.5 0.0 0.3333333333333333 1.0
   0.5 0.0 0.5 1.0
   0.5 0.0 0.6666666666666666 1.0
   0.5 0.0 0.8333333333333334 1.0
   0.5 0.16666666666666666 0.0 1.0
   0.5 0.16666666666666666 0.16666666666666666 1.0
   0.5 0.16666666666666666 0.3333333333333333 1.0
   0.5 0.16666666666666666 0.5 1.0
   0.5 0.16666666666666666 0.6666666666666666 1.0
   0.5 0.16666666666666666 0.8333333333333334 1.0
   0.5 0.3333333333333333 0.0 1.0
   0.5 0.3333333333333333 0.16666666666666666 1.0
   0.5 0.3333333333333333 0.3333333333333333 1.0
   0.5 0.3333333333333333 0.5 1.0
   0.5 0.3333333333333333 0.6666666666666666 1.0
   0.5 0.3333333333333333 0.8333333333333334 1.0
   0.5 0.5 0.0 1.0
   0.5 0.5 0.16666666666666666 1.0
   0.5 0.5 0.3333333333333333 1.0
   0.5 0.5 0.5 1.0
   0.5 0.5 0.6666666666666666 1.0
   0.5 0.5 0.8333333333333334 1.0
   0.5 0.6666666666666666 0.0 1.0
   0.5 0.6666666666666666 0.16666666666666666 1.0
   0.5 0.6666666666666666 0.3333333333333333 1.0
   0.5 0.6666666666666666 0.5 1.0
   0.5 0.6666666666666666 0.6666666666666666 1.0
   0.5 0.6666666666666666 0.8333333333333334 1.0
   0.5 0.8333333333333334 0.0 1.0
   0.5 0.8333333333333334 0.16666666666666666 1.0
   0.5 0.8333333333333334 0.3333333333333333 1.0
   0.5 0.8333333333333334 0.5 1.0
   0.5 0.8333333333333334 0.6666666666666666 1.0
   0.5 0.8333333333333334 0.8333333333333334 1.0
   0.6666666666666666 0.0 0.0 1.0
   0.6666666666666666 0.0 0.16666666666666666 1.0
   0.6666666666666666 0.0 0.3333333333333333 1.0
   0.6666666666666666 0.0 0.5 1.0
   0.6666666666666666 0.0 0.6666666666666666 1.0
   0.6666666666666666 0.0 0.8333333333333334 1.0
   0.6666666666666666 0.16666666666666666 0.0 1.0
   0.6666666666666666 0.16666666666666666 0.16666666666666666 1.0
   0.6666666666666666 0.16666666666666666 0.3333333333333333 1.0
   0.6666666666666666 0.16666666666666666 0.5 1.0
   0.6666666666666666 0.16666666666666666 0.6666666666666666 1.0
   0.6666666666666666 0.16666666666666666 0.8333333333333334 1.0
   0.6666666666666666 0.3333333333333333 0.0 1.0
   0.6666666666666666 0.3333333333333333 0.16666666666666666 1.0
   0.6666666666666666 0.3333333333333333 0.3333333333333333 1.0
   0.6666666666666666 0.3333333333333333 0.5 1.0
   0.6666666666666666 0.3333333333333333 0.6666666666666666 1.0
   0.6666666666666666 0.3333333333333333 0.8333333333333334 1.0
   0.6666666666666666 0.5 0.0 1.0
   0.6666666666666666 0.5 0.16666666666666666 1.0
   0.6666666666666666 0.5 0.3333333333333333 1.0
   0.6666666666666666 0.5 0.5 1.0
   0.6666666666666666 0.5 0.6666666666666666 1.0
   0.6666666666666666 0.5 0.8333333333333334 1.0
   0.6666666666666666 0.6666666666666666 0.0 1.0
   0.6666666666666666 0.6666666666666666 0.16666666666666666 1.0
   0.6666666666666666 0.6666666666666666 0.3333333333333333 1.0
   0.6666666666666666 0.6666666666666666 0.5 1.0
   0.6666666666666666 0.6666666666666666 0.6666666666666666 1.0
   0.6666666666666666 0.6666666666666666 0.8333333333333334 1.0
   0.6666666666666666 0.8333333333333334 0.0 1.0
   0.6666666666666666 0.8333333333333334 0.16666666666666666 1.0
   0.6666666666666666 0.8333333333333334 0.3333333333333333 1.0
   0.6666666666666666 0.8333333333333334 0.5 1.0
   0.6666666666666666 0.8333333333333334 0.6666666666666666 1.0
   0.6666666666666666 0.8333333333333334 0.8333333333333334 1.0
   0.8333333333333334 0.0 0.0 1.0
   0.8333333333333334 0.0 0.16666666666666666 1.0
   0.8333333333333334 0.0 0.3333333333333333 1.0
   0.8333333333333334 0.0 0.5 1.0
   0.8333333333333334 0.0 0.6666666666666666 1.0
   0.8333333333333334 0.0 0.8333333333333334 1.0
   0.8333333333333334 0.16666666666666666 0.0 1.0
   0.8333333333333334 0.16666666666666666 0.16666666666666666 1.0
   0.8333333333333334 0.16666666666666666 0.3333333333333333 1.0
   0.8333333333333334 0.16666666666666666 0.5 1.0
   0.8333333333333334 0.16666666666666666 0.6666666666666666 1.0
   0.8333333333333334 0.16666666666666666 0.8333333333333334 1.0
   0.8333333333333334 0.3333333333333333 0.0 1.0
   0.8333333333333334 0.3333333333333333 0.16666666666666666 1.0
   0.8333333333333334 0.3333333333333333 0.3333333333333333 1.0
   0.8333333333333334 0.3333333333333333 0.5 1.0
   0.8333333333333334 0.3333333333333333 0.6666666666666666 1.0
   0.8333333333333334 0.3333333333333333 0.8333333333333334 1.0
   0.8333333333333334 0.5 0.0 1.0
   0.8333333333333334 0.5 0.16666666666666666 1.0
   0.8333333333333334 0.5 0.3333333333333333 1.0
   0.8333333333333334 0.5 0.5 1.0
   0.8333333333333334 0.5 0.6666666666666666 1.0
   0.8333333333333334 0.5 0.8333333333333334 1.0
   0.8333333333333334 0.6666666666666666 0.0 1.0
   0.8333333333333334 0.6666666666666666 0.16666666666666666 1.0
   0.8333333333333334 0.6666666666666666 0.3333333333333333 1.0
   0.8333333333333334 0.6666666666666666 0.5 1.0
   0.8333333333333334 0.6666666666666666 0.6666666666666666 1.0
   0.8333333333333334 0.6666666666666666 0.8333333333333334 1.0
   0.8333333333333334 0.8333333333333334 0.0 1.0
   0.8333333333333334 0.8333333333333334 0.16666666666666666 1.0
   0.8333333333333334 0.8333333333333334 0.3333333333333333 1.0
   0.8333333333333334 0.8333333333333334 0.5 1.0
   0.8333333333333334 0.8333333333333334 0.6666666666666666 1.0
   0.8333333333333334 0.8333333333333334 0.8333333333333334 1.0
