&control
   prefix = 'Si'
   pseudo_dir = '../../pseudos'
   calculation = 'scf'
/
&system
   ecutwfc = 140.0
   ibrav = 0
   nat = 2
   ntyp = 1
   celldm(1) = 1.0
/
&electrons
   electron_maxstep = 100
   conv_thr = 1e-10
   mixing_mode = 'plain'
   mixing_beta = 0.7
   mixing_ndim = 8
   diagonalization = 'david'
   diago_david_ndim = 4
   diago_full_acc = .true.
/
CELL_PARAMETERS alat
   0.0 5.1452763 5.1452763
   5.1452763 0.0 5.1452763
   5.1452763 5.1452763 0.0
ATOMIC_SPECIES 
   Si 28.0855 'Si.upf'
ATOMIC_POSITIONS angstrom
   Si 0.0 0.0 0.0
   Si 1.3609255925     4.0827767775     4.0827767775
K_POINTS crystal
   28
   0.083333333 0.083333333 0.083333333 2.0
   0.083333333 0.083333333 0.25 6.0
   0.083333333 0.083333333 0.416666667 6.0
   0.083333333 0.083333333 0.583333333 6.0
   0.083333333 0.083333333 0.75 6.0
   0.083333333 0.083333333 0.916666667 6.0
   0.083333333 0.25 0.25 6.0
   0.083333333 0.25 0.416666667 12.0
   0.083333333 0.25 0.583333333 12.0
   0.083333333 0.25 0.75 12.0
   0.083333333 0.25 0.916666667 12.0
   0.083333333 0.416666667 0.416666667 6.0
   0.083333333 0.416666667 0.583333333 12.0
   0.083333333 0.416666667 0.75 12.0
   0.083333333 0.416666667 0.916666667 12.0
   0.083333333 0.583333333 0.583333333 6.0
   0.083333333 0.583333333 0.75 12.0
   0.083333333 0.75 0.75 6.0
   0.25 0.25 0.25 2.0
   0.25 0.25 0.416666667 6.0
   0.25 0.25 0.583333333 6.0
   0.25 0.25 0.75 6.0
   0.25 0.416666667 0.416666667 6.0
   0.25 0.416666667 0.583333333 12.0
   0.25 0.416666667 0.75 12.0
   0.25 0.583333333 0.583333333 6.0
   0.416666667 0.416666667 0.416666667 2.0
   0.416666667 0.416666667 0.583333333 6.0
