&control
   prefix = 'silicon'
   calculation = 'scf'
   restart_mode = 'from_scratch'
   wf_collect = .true.
   tstress = .false.
   tprnfor = .false.
   outdir = './'
   wfcdir = './'
   pseudo_dir = '../'
/
&system
   ibrav = 0
   celldm(1) = 10.2612
   nat = 2
   ntyp = 1
   nbnd = 8
   ecutwfc = 25.0
   ecutfock = 50.0
   input_dft='hse'
   nqx1 = 4
   nqx2 = 4
   nqx3 = 4
/
&electrons
   electron_maxstep = 100
   conv_thr = 1.0d-9
   mixing_mode = 'plain'
   mixing_beta = 0.7
   mixing_ndim = 8
   diagonalization = 'david'
   diago_david_ndim = 4
   diago_full_acc = .true.
   startingwfc = 'random'
/
CELL_PARAMETERS alat
       0.000000000   0.500000000   0.500000000
       0.500000000   0.000000000   0.500000000
       0.500000000   0.500000000   0.000000000
ATOMIC_SPECIES
  Si  28.086  Si.UPF
ATOMIC_POSITIONS crystal
  Si  -0.125000000  -0.125000000  -0.125000000
  Si   0.125000000   0.125000000   0.125000000
K_POINTS crystal
   60
  0.000000000  0.000000000  0.126000000   1.0
  0.000000000  0.000000000  0.376000000   1.0
  0.000000000  0.000000000  0.626000000   1.0
  0.000000000  0.000000000  0.876000000   1.0
  0.000000000  0.250000000  0.376000000   3.0
  0.000000000  0.375000000  0.251000000   3.0
  0.000000000  0.375000000  0.501000000   3.0
  0.000000000  0.500000000  0.626000000   3.0
  0.000000000  0.625000000  0.501000000   3.0
  0.000000000  0.625000000  0.751000000   3.0
  0.125000000  0.125000000  0.126000000   3.0
  0.125000000  0.125000000  0.376000000   3.0
  0.125000000  0.125000000  0.626000000   3.0
  0.125000000  0.125000000  0.876000000   3.0
  0.125000000  0.375000000  0.376000000   6.0
  0.125000000  0.375000000  0.626000000   6.0
  0.125000000  0.375000000  0.876000000   6.0
  0.125000000  0.625000000  0.626000000   6.0
  0.250000000  0.125000000  0.001000000   6.0
  0.250000000  0.125000000  0.751000000   6.0
  0.250000000  0.250000000  0.126000000   3.0
  0.250000000  0.250000000  0.376000000   3.0
  0.250000000  0.250000000  0.626000000   3.0
  0.250000000  0.500000000  0.126000000   6.0
  0.250000000  0.500000000  0.626000000   6.0
  0.250000000  0.625000000  0.001000000   6.0
  0.250000000  0.625000000  0.751000000   6.0
  0.250000000  0.875000000  0.001000000   6.0
  0.375000000  0.375000000  0.376000000   3.0
  0.375000000  0.375000000  0.626000000   3.0
  0.375000000  0.875000000  0.376000000   6.0
  0.500000000  0.000000000  0.376000000   3.0
  0.500000000  0.125000000  0.001000000   6.0
  0.500000000  0.125000000  0.751000000   6.0
  0.500000000  0.375000000  0.251000000   6.0
  0.500000000  0.500000000  0.376000000   3.0
  0.500000000  0.500000000  0.626000000   3.0
  0.500000000  0.625000000  0.751000000   6.0
  0.500000000  0.750000000  0.376000000   6.0
  0.500000000  0.750000000  0.876000000   6.0
  0.500000000  0.875000000  0.001000000   6.0
  0.500000000  0.875000000  0.251000000   6.0
  0.625000000  0.625000000  0.376000000   3.0
  0.625000000  0.625000000  0.626000000   3.0
  0.625000000  0.875000000  0.126000000   6.0
  0.625000000  0.875000000  0.376000000   6.0
  0.625000000  0.875000000  0.626000000   6.0
  0.750000000  0.000000000  0.626000000   3.0
  0.750000000  0.125000000  0.001000000   6.0
  0.750000000  0.375000000  0.001000000   6.0
  0.750000000  0.375000000  0.251000000   6.0
  0.750000000  0.750000000  0.376000000   3.0
  0.750000000  0.750000000  0.626000000   3.0
  0.750000000  0.750000000  0.876000000   3.0
  0.750000000  0.875000000  0.001000000   6.0
  0.750000000  0.875000000  0.251000000   6.0
  0.875000000  0.875000000  0.126000000   3.0
  0.875000000  0.875000000  0.376000000   3.0
  0.875000000  0.875000000  0.626000000   3.0
  0.875000000  0.875000000  0.876000000   3.0
