num_bands         =  4
num_wann          =   4

#These are just random here    
Begin Projections     
Si : sp
End Projections 
    
begin kpoint_path
W 0.750 0.500 0.250  L 0.500 0.000 0.000
L 0.500 0.000 0.000  G 0.000 0.000 0.000
G 0.000 0.000 0.000  X 0.500 0.500 0.000
X 0.500 0.500 0.000  W 0.750 0.500 0.250
W 0.750 0.500 0.250  K 0.750 0.375 0.375
end kpoint_path

bands_plot = .true.
