&CONTROL
   prefix = 'Zn2O2'
   calculation = 'bands'
   verbosity = 'high'
   restart_mode = 'from_scratch'
   wf_collect = .false.
   tstress = .false.
   tprnfor = .false.
   outdir = '.'
   wfcdir = '.'
   pseudo_dir = '../../../../pseudo/semicore/ld1'
/
&SYSTEM
   ibrav = 0
   a = 1.0
   nat = 4
   ntyp = 2
   nbnd = 26
   ecutwfc = 400.0
   nr1 = 80
   nr2 = 80
   nr3 = 128
/
&ELECTRONS
   electron_maxstep = 100
   conv_thr = 1.0d-10
   mixing_mode = 'plain'
   mixing_beta = 0.7
   mixing_ndim = 8
   diagonalization = 'david'
   diago_david_ndim = 4
   diago_full_acc = .true.
/
CELL_PARAMETERS alat
   3.250000000   0.000000000   0.000000000
  -1.625000000   2.814582562   0.000000000
   0.000000000   0.000000000   5.200000000
ATOMIC_SPECIES
  Zn  65.380  Zn.pw-spn-nc.UPF
   O  15.999  O.pw-n-nc.UPF
ATOMIC_POSITIONS crystal
Zn       0.666666667   0.333333333   0.000000000
Zn       0.333333333   0.666666667   0.500000000
O        0.666666667   0.333333333   0.618000000
O        0.333333333   0.666666667   0.118000000
K_POINTS crystal
72
0.488506 0.022989 0.500000 0.027778
0.482759 0.034483 0.500000 0.027778
0.477011 0.045977 0.500000 0.027778
0.471264 0.057471 0.500000 0.027778
0.465517 0.068966 0.500000 0.027778
0.459770 0.080460 0.500000 0.027778
0.454023 0.091954 0.500000 0.027778
0.448276 0.103448 0.500000 0.027778
0.442529 0.114943 0.500000 0.027778
0.436782 0.126437 0.500000 0.027778
0.431034 0.137931 0.500000 0.027778
0.425287 0.149425 0.500000 0.027778
0.419540 0.160920 0.500000 0.027778
0.413793 0.172414 0.500000 0.027778
0.408046 0.183908 0.500000 0.027778
0.402299 0.195402 0.500000 0.027778
0.396552 0.206897 0.500000 0.027778
0.390805 0.218391 0.500000 0.027778
0.385057 0.229885 0.500000 0.027778
0.379310 0.241379 0.500000 0.027778
0.373563 0.252874 0.500000 0.027778
0.367816 0.264368 0.500000 0.027778
0.362069 0.275862 0.500000 0.027778
0.356322 0.287356 0.500000 0.027778
0.350575 0.298851 0.500000 0.027778
0.344828 0.310345 0.500000 0.027778
0.339080 0.321839 0.500000 0.027778
0.333333 0.333333 0.500000 0.027778
0.327586 0.327586 0.500000 0.027778
0.321839 0.321839 0.500000 0.027778
0.316092 0.316092 0.500000 0.027778
0.310345 0.310345 0.500000 0.027778
0.304598 0.304598 0.500000 0.027778
0.298851 0.298851 0.500000 0.027778
0.293103 0.293103 0.500000 0.027778
0.287356 0.287356 0.500000 0.027778
0.281609 0.281609 0.500000 0.027778
0.275862 0.275862 0.500000 0.027778
0.270115 0.270115 0.500000 0.027778
0.264368 0.264368 0.500000 0.027778
0.258621 0.258621 0.500000 0.027778
0.252874 0.252874 0.500000 0.027778
0.247126 0.247126 0.500000 0.027778
0.241379 0.241379 0.500000 0.027778
0.235632 0.235632 0.500000 0.027778
0.229885 0.229885 0.500000 0.027778
0.224138 0.224138 0.500000 0.027778
0.218391 0.218391 0.500000 0.027778
0.212644 0.212644 0.500000 0.027778
0.206897 0.206897 0.500000 0.027778
0.201149 0.201149 0.500000 0.027778
0.195402 0.195402 0.500000 0.027778
0.189655 0.189655 0.500000 0.027778
0.183908 0.183908 0.500000 0.027778
0.178161 0.178161 0.500000 0.027778
0.172414 0.172414 0.500000 0.027778
0.166667 0.166667 0.500000 0.027778
0.160920 0.160920 0.500000 0.027778
0.155172 0.155172 0.500000 0.027778
0.149425 0.149425 0.500000 0.027778
0.143678 0.143678 0.500000 0.027778
0.137931 0.137931 0.500000 0.027778
0.132184 0.132184 0.500000 0.027778
0.126437 0.126437 0.500000 0.027778
0.120690 0.120690 0.500000 0.027778
0.114943 0.114943 0.500000 0.027778
0.109195 0.109195 0.500000 0.027778
0.103448 0.103448 0.500000 0.027778
0.097701 0.097701 0.500000 0.027778
0.091954 0.091954 0.500000 0.027778
0.086207 0.086207 0.500000 0.027778
0.080460 0.080460 0.500000 0.027778
