&control
   prefix = 'Si'
   pseudo_dir = '../../pseudos'
   calculation = 'bands'
/
&system
   ecutwfc = 140.0
   ibrav = 0
   nat = 2
   ntyp = 1
   nbnd = 15
   celldm(1) = 1.0
/
&electrons
   electron_maxstep = 100
   conv_thr = 1e-10
   mixing_mode = 'plain'
   mixing_beta = 0.7
   mixing_ndim = 8
   diagonalization = 'david'
   diago_david_ndim = 4
   diago_full_acc = .true.
/
CELL_PARAMETERS alat
   0.0 5.1452763 5.1452763
   5.1452763 0.0 5.1452763
   5.1452763 5.1452763 0.0
ATOMIC_SPECIES 
   Si 28.0855 'Si.upf'
ATOMIC_POSITIONS angstrom
   Si 0.0 0.0 0.0
   Si 1.3609255925     4.0827767775     4.0827767775
K_POINTS crystal
1331
0.0 0.0 0.0 0.0007513148009015778
0.0 0.0 0.01666667 0.0007513148009015778
0.0 0.0 0.03333333 0.0007513148009015778
0.0 0.0 0.05 0.0007513148009015778
0.0 0.0 0.06666667 0.0007513148009015778
0.0 0.0 0.08333333 0.0007513148009015778
0.0 0.0 -0.08333332999999998 0.0007513148009015778
0.0 0.0 -0.06666667000000004 0.0007513148009015778
0.0 0.0 -0.050000000000000044 0.0007513148009015778
0.0 0.0 -0.03333333000000005 0.0007513148009015778
0.0 0.0 -0.016666669999999995 0.0007513148009015778
0.0 0.01666667 0.0 0.0007513148009015778
0.0 0.01666667 0.01666667 0.0007513148009015778
0.0 0.01666667 0.03333333 0.0007513148009015778
0.0 0.01666667 0.05 0.0007513148009015778
0.0 0.01666667 0.06666667 0.0007513148009015778
0.0 0.01666667 0.08333333 0.0007513148009015778
0.0 0.01666667 -0.08333332999999998 0.0007513148009015778
0.0 0.01666667 -0.06666667000000004 0.0007513148009015778
0.0 0.01666667 -0.050000000000000044 0.0007513148009015778
0.0 0.01666667 -0.03333333000000005 0.0007513148009015778
0.0 0.01666667 -0.016666669999999995 0.0007513148009015778
0.0 0.03333333 0.0 0.0007513148009015778
0.0 0.03333333 0.01666667 0.0007513148009015778
0.0 0.03333333 0.03333333 0.0007513148009015778
0.0 0.03333333 0.05 0.0007513148009015778
0.0 0.03333333 0.06666667 0.0007513148009015778
0.0 0.03333333 0.08333333 0.0007513148009015778
0.0 0.03333333 -0.08333332999999998 0.0007513148009015778
0.0 0.03333333 -0.06666667000000004 0.0007513148009015778
0.0 0.03333333 -0.050000000000000044 0.0007513148009015778
0.0 0.03333333 -0.03333333000000005 0.0007513148009015778
0.0 0.03333333 -0.016666669999999995 0.0007513148009015778
0.0 0.05 0.0 0.0007513148009015778
0.0 0.05 0.01666667 0.0007513148009015778
0.0 0.05 0.03333333 0.0007513148009015778
0.0 0.05 0.05 0.0007513148009015778
0.0 0.05 0.06666667 0.0007513148009015778
0.0 0.05 0.08333333 0.0007513148009015778
0.0 0.05 -0.08333332999999998 0.0007513148009015778
0.0 0.05 -0.06666667000000004 0.0007513148009015778
0.0 0.05 -0.050000000000000044 0.0007513148009015778
0.0 0.05 -0.03333333000000005 0.0007513148009015778
0.0 0.05 -0.016666669999999995 0.0007513148009015778
0.0 0.06666667 0.0 0.0007513148009015778
0.0 0.06666667 0.01666667 0.0007513148009015778
0.0 0.06666667 0.03333333 0.0007513148009015778
0.0 0.06666667 0.05 0.0007513148009015778
0.0 0.06666667 0.06666667 0.0007513148009015778
0.0 0.06666667 0.08333333 0.0007513148009015778
0.0 0.06666667 -0.08333332999999998 0.0007513148009015778
0.0 0.06666667 -0.06666667000000004 0.0007513148009015778
0.0 0.06666667 -0.050000000000000044 0.0007513148009015778
0.0 0.06666667 -0.03333333000000005 0.0007513148009015778
0.0 0.06666667 -0.016666669999999995 0.0007513148009015778
0.0 0.08333333 0.0 0.0007513148009015778
0.0 0.08333333 0.01666667 0.0007513148009015778
0.0 0.08333333 0.03333333 0.0007513148009015778
0.0 0.08333333 0.05 0.0007513148009015778
0.0 0.08333333 0.06666667 0.0007513148009015778
0.0 0.08333333 0.08333333 0.0007513148009015778
0.0 0.08333333 -0.08333332999999998 0.0007513148009015778
0.0 0.08333333 -0.06666667000000004 0.0007513148009015778
0.0 0.08333333 -0.050000000000000044 0.0007513148009015778
0.0 0.08333333 -0.03333333000000005 0.0007513148009015778
0.0 0.08333333 -0.016666669999999995 0.0007513148009015778
0.0 -0.08333332999999998 0.0 0.0007513148009015778
0.0 -0.08333332999999998 0.01666667 0.0007513148009015778
0.0 -0.08333332999999998 0.03333333 0.0007513148009015778
0.0 -0.08333332999999998 0.05 0.0007513148009015778
0.0 -0.08333332999999998 0.06666667 0.0007513148009015778
0.0 -0.08333332999999998 0.08333333 0.0007513148009015778
0.0 -0.08333332999999998 -0.08333332999999998 0.0007513148009015778
0.0 -0.08333332999999998 -0.06666667000000004 0.0007513148009015778
0.0 -0.08333332999999998 -0.050000000000000044 0.0007513148009015778
0.0 -0.08333332999999998 -0.03333333000000005 0.0007513148009015778
0.0 -0.08333332999999998 -0.016666669999999995 0.0007513148009015778
0.0 -0.06666667000000004 0.0 0.0007513148009015778
0.0 -0.06666667000000004 0.01666667 0.0007513148009015778
0.0 -0.06666667000000004 0.03333333 0.0007513148009015778
0.0 -0.06666667000000004 0.05 0.0007513148009015778
0.0 -0.06666667000000004 0.06666667 0.0007513148009015778
0.0 -0.06666667000000004 0.08333333 0.0007513148009015778
0.0 -0.06666667000000004 -0.08333332999999998 0.0007513148009015778
0.0 -0.06666667000000004 -0.06666667000000004 0.0007513148009015778
0.0 -0.06666667000000004 -0.050000000000000044 0.0007513148009015778
0.0 -0.06666667000000004 -0.03333333000000005 0.0007513148009015778
0.0 -0.06666667000000004 -0.016666669999999995 0.0007513148009015778
0.0 -0.050000000000000044 0.0 0.0007513148009015778
0.0 -0.050000000000000044 0.01666667 0.0007513148009015778
0.0 -0.050000000000000044 0.03333333 0.0007513148009015778
0.0 -0.050000000000000044 0.05 0.0007513148009015778
0.0 -0.050000000000000044 0.06666667 0.0007513148009015778
0.0 -0.050000000000000044 0.08333333 0.0007513148009015778
0.0 -0.050000000000000044 -0.08333332999999998 0.0007513148009015778
0.0 -0.050000000000000044 -0.06666667000000004 0.0007513148009015778
0.0 -0.050000000000000044 -0.050000000000000044 0.0007513148009015778
0.0 -0.050000000000000044 -0.03333333000000005 0.0007513148009015778
0.0 -0.050000000000000044 -0.016666669999999995 0.0007513148009015778
0.0 -0.03333333000000005 0.0 0.0007513148009015778
0.0 -0.03333333000000005 0.01666667 0.0007513148009015778
0.0 -0.03333333000000005 0.03333333 0.0007513148009015778
0.0 -0.03333333000000005 0.05 0.0007513148009015778
0.0 -0.03333333000000005 0.06666667 0.0007513148009015778
0.0 -0.03333333000000005 0.08333333 0.0007513148009015778
0.0 -0.03333333000000005 -0.08333332999999998 0.0007513148009015778
0.0 -0.03333333000000005 -0.06666667000000004 0.0007513148009015778
0.0 -0.03333333000000005 -0.050000000000000044 0.0007513148009015778
0.0 -0.03333333000000005 -0.03333333000000005 0.0007513148009015778
0.0 -0.03333333000000005 -0.016666669999999995 0.0007513148009015778
0.0 -0.016666669999999995 0.0 0.0007513148009015778
0.0 -0.016666669999999995 0.01666667 0.0007513148009015778
0.0 -0.016666669999999995 0.03333333 0.0007513148009015778
0.0 -0.016666669999999995 0.05 0.0007513148009015778
0.0 -0.016666669999999995 0.06666667 0.0007513148009015778
0.0 -0.016666669999999995 0.08333333 0.0007513148009015778
0.0 -0.016666669999999995 -0.08333332999999998 0.0007513148009015778
0.0 -0.016666669999999995 -0.06666667000000004 0.0007513148009015778
0.0 -0.016666669999999995 -0.050000000000000044 0.0007513148009015778
0.0 -0.016666669999999995 -0.03333333000000005 0.0007513148009015778
0.0 -0.016666669999999995 -0.016666669999999995 0.0007513148009015778
0.01666667 0.0 0.0 0.0007513148009015778
0.01666667 0.0 0.01666667 0.0007513148009015778
0.01666667 0.0 0.03333333 0.0007513148009015778
0.01666667 0.0 0.05 0.0007513148009015778
0.01666667 0.0 0.06666667 0.0007513148009015778
0.01666667 0.0 0.08333333 0.0007513148009015778
0.01666667 0.0 -0.08333332999999998 0.0007513148009015778
0.01666667 0.0 -0.06666667000000004 0.0007513148009015778
0.01666667 0.0 -0.050000000000000044 0.0007513148009015778
0.01666667 0.0 -0.03333333000000005 0.0007513148009015778
0.01666667 0.0 -0.016666669999999995 0.0007513148009015778
0.01666667 0.01666667 0.0 0.0007513148009015778
0.01666667 0.01666667 0.01666667 0.0007513148009015778
0.01666667 0.01666667 0.03333333 0.0007513148009015778
0.01666667 0.01666667 0.05 0.0007513148009015778
0.01666667 0.01666667 0.06666667 0.0007513148009015778
0.01666667 0.01666667 0.08333333 0.0007513148009015778
0.01666667 0.01666667 -0.08333332999999998 0.0007513148009015778
0.01666667 0.01666667 -0.06666667000000004 0.0007513148009015778
0.01666667 0.01666667 -0.050000000000000044 0.0007513148009015778
0.01666667 0.01666667 -0.03333333000000005 0.0007513148009015778
0.01666667 0.01666667 -0.016666669999999995 0.0007513148009015778
0.01666667 0.03333333 0.0 0.0007513148009015778
0.01666667 0.03333333 0.01666667 0.0007513148009015778
0.01666667 0.03333333 0.03333333 0.0007513148009015778
0.01666667 0.03333333 0.05 0.0007513148009015778
0.01666667 0.03333333 0.06666667 0.0007513148009015778
0.01666667 0.03333333 0.08333333 0.0007513148009015778
0.01666667 0.03333333 -0.08333332999999998 0.0007513148009015778
0.01666667 0.03333333 -0.06666667000000004 0.0007513148009015778
0.01666667 0.03333333 -0.050000000000000044 0.0007513148009015778
0.01666667 0.03333333 -0.03333333000000005 0.0007513148009015778
0.01666667 0.03333333 -0.016666669999999995 0.0007513148009015778
0.01666667 0.05 0.0 0.0007513148009015778
0.01666667 0.05 0.01666667 0.0007513148009015778
0.01666667 0.05 0.03333333 0.0007513148009015778
0.01666667 0.05 0.05 0.0007513148009015778
0.01666667 0.05 0.06666667 0.0007513148009015778
0.01666667 0.05 0.08333333 0.0007513148009015778
0.01666667 0.05 -0.08333332999999998 0.0007513148009015778
0.01666667 0.05 -0.06666667000000004 0.0007513148009015778
0.01666667 0.05 -0.050000000000000044 0.0007513148009015778
0.01666667 0.05 -0.03333333000000005 0.0007513148009015778
0.01666667 0.05 -0.016666669999999995 0.0007513148009015778
0.01666667 0.06666667 0.0 0.0007513148009015778
0.01666667 0.06666667 0.01666667 0.0007513148009015778
0.01666667 0.06666667 0.03333333 0.0007513148009015778
0.01666667 0.06666667 0.05 0.0007513148009015778
0.01666667 0.06666667 0.06666667 0.0007513148009015778
0.01666667 0.06666667 0.08333333 0.0007513148009015778
0.01666667 0.06666667 -0.08333332999999998 0.0007513148009015778
0.01666667 0.06666667 -0.06666667000000004 0.0007513148009015778
0.01666667 0.06666667 -0.050000000000000044 0.0007513148009015778
0.01666667 0.06666667 -0.03333333000000005 0.0007513148009015778
0.01666667 0.06666667 -0.016666669999999995 0.0007513148009015778
0.01666667 0.08333333 0.0 0.0007513148009015778
0.01666667 0.08333333 0.01666667 0.0007513148009015778
0.01666667 0.08333333 0.03333333 0.0007513148009015778
0.01666667 0.08333333 0.05 0.0007513148009015778
0.01666667 0.08333333 0.06666667 0.0007513148009015778
0.01666667 0.08333333 0.08333333 0.0007513148009015778
0.01666667 0.08333333 -0.08333332999999998 0.0007513148009015778
0.01666667 0.08333333 -0.06666667000000004 0.0007513148009015778
0.01666667 0.08333333 -0.050000000000000044 0.0007513148009015778
0.01666667 0.08333333 -0.03333333000000005 0.0007513148009015778
0.01666667 0.08333333 -0.016666669999999995 0.0007513148009015778
0.01666667 -0.08333332999999998 0.0 0.0007513148009015778
0.01666667 -0.08333332999999998 0.01666667 0.0007513148009015778
0.01666667 -0.08333332999999998 0.03333333 0.0007513148009015778
0.01666667 -0.08333332999999998 0.05 0.0007513148009015778
0.01666667 -0.08333332999999998 0.06666667 0.0007513148009015778
0.01666667 -0.08333332999999998 0.08333333 0.0007513148009015778
0.01666667 -0.08333332999999998 -0.08333332999999998 0.0007513148009015778
0.01666667 -0.08333332999999998 -0.06666667000000004 0.0007513148009015778
0.01666667 -0.08333332999999998 -0.050000000000000044 0.0007513148009015778
0.01666667 -0.08333332999999998 -0.03333333000000005 0.0007513148009015778
0.01666667 -0.08333332999999998 -0.016666669999999995 0.0007513148009015778
0.01666667 -0.06666667000000004 0.0 0.0007513148009015778
0.01666667 -0.06666667000000004 0.01666667 0.0007513148009015778
0.01666667 -0.06666667000000004 0.03333333 0.0007513148009015778
0.01666667 -0.06666667000000004 0.05 0.0007513148009015778
0.01666667 -0.06666667000000004 0.06666667 0.0007513148009015778
0.01666667 -0.06666667000000004 0.08333333 0.0007513148009015778
0.01666667 -0.06666667000000004 -0.08333332999999998 0.0007513148009015778
0.01666667 -0.06666667000000004 -0.06666667000000004 0.0007513148009015778
0.01666667 -0.06666667000000004 -0.050000000000000044 0.0007513148009015778
0.01666667 -0.06666667000000004 -0.03333333000000005 0.0007513148009015778
0.01666667 -0.06666667000000004 -0.016666669999999995 0.0007513148009015778
0.01666667 -0.050000000000000044 0.0 0.0007513148009015778
0.01666667 -0.050000000000000044 0.01666667 0.0007513148009015778
0.01666667 -0.050000000000000044 0.03333333 0.0007513148009015778
0.01666667 -0.050000000000000044 0.05 0.0007513148009015778
0.01666667 -0.050000000000000044 0.06666667 0.0007513148009015778
0.01666667 -0.050000000000000044 0.08333333 0.0007513148009015778
0.01666667 -0.050000000000000044 -0.08333332999999998 0.0007513148009015778
0.01666667 -0.050000000000000044 -0.06666667000000004 0.0007513148009015778
0.01666667 -0.050000000000000044 -0.050000000000000044 0.0007513148009015778
0.01666667 -0.050000000000000044 -0.03333333000000005 0.0007513148009015778
0.01666667 -0.050000000000000044 -0.016666669999999995 0.0007513148009015778
0.01666667 -0.03333333000000005 0.0 0.0007513148009015778
0.01666667 -0.03333333000000005 0.01666667 0.0007513148009015778
0.01666667 -0.03333333000000005 0.03333333 0.0007513148009015778
0.01666667 -0.03333333000000005 0.05 0.0007513148009015778
0.01666667 -0.03333333000000005 0.06666667 0.0007513148009015778
0.01666667 -0.03333333000000005 0.08333333 0.0007513148009015778
0.01666667 -0.03333333000000005 -0.08333332999999998 0.0007513148009015778
0.01666667 -0.03333333000000005 -0.06666667000000004 0.0007513148009015778
0.01666667 -0.03333333000000005 -0.050000000000000044 0.0007513148009015778
0.01666667 -0.03333333000000005 -0.03333333000000005 0.0007513148009015778
0.01666667 -0.03333333000000005 -0.016666669999999995 0.0007513148009015778
0.01666667 -0.016666669999999995 0.0 0.0007513148009015778
0.01666667 -0.016666669999999995 0.01666667 0.0007513148009015778
0.01666667 -0.016666669999999995 0.03333333 0.0007513148009015778
0.01666667 -0.016666669999999995 0.05 0.0007513148009015778
0.01666667 -0.016666669999999995 0.06666667 0.0007513148009015778
0.01666667 -0.016666669999999995 0.08333333 0.0007513148009015778
0.01666667 -0.016666669999999995 -0.08333332999999998 0.0007513148009015778
0.01666667 -0.016666669999999995 -0.06666667000000004 0.0007513148009015778
0.01666667 -0.016666669999999995 -0.050000000000000044 0.0007513148009015778
0.01666667 -0.016666669999999995 -0.03333333000000005 0.0007513148009015778
0.01666667 -0.016666669999999995 -0.016666669999999995 0.0007513148009015778
0.03333333 0.0 0.0 0.0007513148009015778
0.03333333 0.0 0.01666667 0.0007513148009015778
0.03333333 0.0 0.03333333 0.0007513148009015778
0.03333333 0.0 0.05 0.0007513148009015778
0.03333333 0.0 0.06666667 0.0007513148009015778
0.03333333 0.0 0.08333333 0.0007513148009015778
0.03333333 0.0 -0.08333332999999998 0.0007513148009015778
0.03333333 0.0 -0.06666667000000004 0.0007513148009015778
0.03333333 0.0 -0.050000000000000044 0.0007513148009015778
0.03333333 0.0 -0.03333333000000005 0.0007513148009015778
0.03333333 0.0 -0.016666669999999995 0.0007513148009015778
0.03333333 0.01666667 0.0 0.0007513148009015778
0.03333333 0.01666667 0.01666667 0.0007513148009015778
0.03333333 0.01666667 0.03333333 0.0007513148009015778
0.03333333 0.01666667 0.05 0.0007513148009015778
0.03333333 0.01666667 0.06666667 0.0007513148009015778
0.03333333 0.01666667 0.08333333 0.0007513148009015778
0.03333333 0.01666667 -0.08333332999999998 0.0007513148009015778
0.03333333 0.01666667 -0.06666667000000004 0.0007513148009015778
0.03333333 0.01666667 -0.050000000000000044 0.0007513148009015778
0.03333333 0.01666667 -0.03333333000000005 0.0007513148009015778
0.03333333 0.01666667 -0.016666669999999995 0.0007513148009015778
0.03333333 0.03333333 0.0 0.0007513148009015778
0.03333333 0.03333333 0.01666667 0.0007513148009015778
0.03333333 0.03333333 0.03333333 0.0007513148009015778
0.03333333 0.03333333 0.05 0.0007513148009015778
0.03333333 0.03333333 0.06666667 0.0007513148009015778
0.03333333 0.03333333 0.08333333 0.0007513148009015778
0.03333333 0.03333333 -0.08333332999999998 0.0007513148009015778
0.03333333 0.03333333 -0.06666667000000004 0.0007513148009015778
0.03333333 0.03333333 -0.050000000000000044 0.0007513148009015778
0.03333333 0.03333333 -0.03333333000000005 0.0007513148009015778
0.03333333 0.03333333 -0.016666669999999995 0.0007513148009015778
0.03333333 0.05 0.0 0.0007513148009015778
0.03333333 0.05 0.01666667 0.0007513148009015778
0.03333333 0.05 0.03333333 0.0007513148009015778
0.03333333 0.05 0.05 0.0007513148009015778
0.03333333 0.05 0.06666667 0.0007513148009015778
0.03333333 0.05 0.08333333 0.0007513148009015778
0.03333333 0.05 -0.08333332999999998 0.0007513148009015778
0.03333333 0.05 -0.06666667000000004 0.0007513148009015778
0.03333333 0.05 -0.050000000000000044 0.0007513148009015778
0.03333333 0.05 -0.03333333000000005 0.0007513148009015778
0.03333333 0.05 -0.016666669999999995 0.0007513148009015778
0.03333333 0.06666667 0.0 0.0007513148009015778
0.03333333 0.06666667 0.01666667 0.0007513148009015778
0.03333333 0.06666667 0.03333333 0.0007513148009015778
0.03333333 0.06666667 0.05 0.0007513148009015778
0.03333333 0.06666667 0.06666667 0.0007513148009015778
0.03333333 0.06666667 0.08333333 0.0007513148009015778
0.03333333 0.06666667 -0.08333332999999998 0.0007513148009015778
0.03333333 0.06666667 -0.06666667000000004 0.0007513148009015778
0.03333333 0.06666667 -0.050000000000000044 0.0007513148009015778
0.03333333 0.06666667 -0.03333333000000005 0.0007513148009015778
0.03333333 0.06666667 -0.016666669999999995 0.0007513148009015778
0.03333333 0.08333333 0.0 0.0007513148009015778
0.03333333 0.08333333 0.01666667 0.0007513148009015778
0.03333333 0.08333333 0.03333333 0.0007513148009015778
0.03333333 0.08333333 0.05 0.0007513148009015778
0.03333333 0.08333333 0.06666667 0.0007513148009015778
0.03333333 0.08333333 0.08333333 0.0007513148009015778
0.03333333 0.08333333 -0.08333332999999998 0.0007513148009015778
0.03333333 0.08333333 -0.06666667000000004 0.0007513148009015778
0.03333333 0.08333333 -0.050000000000000044 0.0007513148009015778
0.03333333 0.08333333 -0.03333333000000005 0.0007513148009015778
0.03333333 0.08333333 -0.016666669999999995 0.0007513148009015778
0.03333333 -0.08333332999999998 0.0 0.0007513148009015778
0.03333333 -0.08333332999999998 0.01666667 0.0007513148009015778
0.03333333 -0.08333332999999998 0.03333333 0.0007513148009015778
0.03333333 -0.08333332999999998 0.05 0.0007513148009015778
0.03333333 -0.08333332999999998 0.06666667 0.0007513148009015778
0.03333333 -0.08333332999999998 0.08333333 0.0007513148009015778
0.03333333 -0.08333332999999998 -0.08333332999999998 0.0007513148009015778
0.03333333 -0.08333332999999998 -0.06666667000000004 0.0007513148009015778
0.03333333 -0.08333332999999998 -0.050000000000000044 0.0007513148009015778
0.03333333 -0.08333332999999998 -0.03333333000000005 0.0007513148009015778
0.03333333 -0.08333332999999998 -0.016666669999999995 0.0007513148009015778
0.03333333 -0.06666667000000004 0.0 0.0007513148009015778
0.03333333 -0.06666667000000004 0.01666667 0.0007513148009015778
0.03333333 -0.06666667000000004 0.03333333 0.0007513148009015778
0.03333333 -0.06666667000000004 0.05 0.0007513148009015778
0.03333333 -0.06666667000000004 0.06666667 0.0007513148009015778
0.03333333 -0.06666667000000004 0.08333333 0.0007513148009015778
0.03333333 -0.06666667000000004 -0.08333332999999998 0.0007513148009015778
0.03333333 -0.06666667000000004 -0.06666667000000004 0.0007513148009015778
0.03333333 -0.06666667000000004 -0.050000000000000044 0.0007513148009015778
0.03333333 -0.06666667000000004 -0.03333333000000005 0.0007513148009015778
0.03333333 -0.06666667000000004 -0.016666669999999995 0.0007513148009015778
0.03333333 -0.050000000000000044 0.0 0.0007513148009015778
0.03333333 -0.050000000000000044 0.01666667 0.0007513148009015778
0.03333333 -0.050000000000000044 0.03333333 0.0007513148009015778
0.03333333 -0.050000000000000044 0.05 0.0007513148009015778
0.03333333 -0.050000000000000044 0.06666667 0.0007513148009015778
0.03333333 -0.050000000000000044 0.08333333 0.0007513148009015778
0.03333333 -0.050000000000000044 -0.08333332999999998 0.0007513148009015778
0.03333333 -0.050000000000000044 -0.06666667000000004 0.0007513148009015778
0.03333333 -0.050000000000000044 -0.050000000000000044 0.0007513148009015778
0.03333333 -0.050000000000000044 -0.03333333000000005 0.0007513148009015778
0.03333333 -0.050000000000000044 -0.016666669999999995 0.0007513148009015778
0.03333333 -0.03333333000000005 0.0 0.0007513148009015778
0.03333333 -0.03333333000000005 0.01666667 0.0007513148009015778
0.03333333 -0.03333333000000005 0.03333333 0.0007513148009015778
0.03333333 -0.03333333000000005 0.05 0.0007513148009015778
0.03333333 -0.03333333000000005 0.06666667 0.0007513148009015778
0.03333333 -0.03333333000000005 0.08333333 0.0007513148009015778
0.03333333 -0.03333333000000005 -0.08333332999999998 0.0007513148009015778
0.03333333 -0.03333333000000005 -0.06666667000000004 0.0007513148009015778
0.03333333 -0.03333333000000005 -0.050000000000000044 0.0007513148009015778
0.03333333 -0.03333333000000005 -0.03333333000000005 0.0007513148009015778
0.03333333 -0.03333333000000005 -0.016666669999999995 0.0007513148009015778
0.03333333 -0.016666669999999995 0.0 0.0007513148009015778
0.03333333 -0.016666669999999995 0.01666667 0.0007513148009015778
0.03333333 -0.016666669999999995 0.03333333 0.0007513148009015778
0.03333333 -0.016666669999999995 0.05 0.0007513148009015778
0.03333333 -0.016666669999999995 0.06666667 0.0007513148009015778
0.03333333 -0.016666669999999995 0.08333333 0.0007513148009015778
0.03333333 -0.016666669999999995 -0.08333332999999998 0.0007513148009015778
0.03333333 -0.016666669999999995 -0.06666667000000004 0.0007513148009015778
0.03333333 -0.016666669999999995 -0.050000000000000044 0.0007513148009015778
0.03333333 -0.016666669999999995 -0.03333333000000005 0.0007513148009015778
0.03333333 -0.016666669999999995 -0.016666669999999995 0.0007513148009015778
0.05 0.0 0.0 0.0007513148009015778
0.05 0.0 0.01666667 0.0007513148009015778
0.05 0.0 0.03333333 0.0007513148009015778
0.05 0.0 0.05 0.0007513148009015778
0.05 0.0 0.06666667 0.0007513148009015778
0.05 0.0 0.08333333 0.0007513148009015778
0.05 0.0 -0.08333332999999998 0.0007513148009015778
0.05 0.0 -0.06666667000000004 0.0007513148009015778
0.05 0.0 -0.050000000000000044 0.0007513148009015778
0.05 0.0 -0.03333333000000005 0.0007513148009015778
0.05 0.0 -0.016666669999999995 0.0007513148009015778
0.05 0.01666667 0.0 0.0007513148009015778
0.05 0.01666667 0.01666667 0.0007513148009015778
0.05 0.01666667 0.03333333 0.0007513148009015778
0.05 0.01666667 0.05 0.0007513148009015778
0.05 0.01666667 0.06666667 0.0007513148009015778
0.05 0.01666667 0.08333333 0.0007513148009015778
0.05 0.01666667 -0.08333332999999998 0.0007513148009015778
0.05 0.01666667 -0.06666667000000004 0.0007513148009015778
0.05 0.01666667 -0.050000000000000044 0.0007513148009015778
0.05 0.01666667 -0.03333333000000005 0.0007513148009015778
0.05 0.01666667 -0.016666669999999995 0.0007513148009015778
0.05 0.03333333 0.0 0.0007513148009015778
0.05 0.03333333 0.01666667 0.0007513148009015778
0.05 0.03333333 0.03333333 0.0007513148009015778
0.05 0.03333333 0.05 0.0007513148009015778
0.05 0.03333333 0.06666667 0.0007513148009015778
0.05 0.03333333 0.08333333 0.0007513148009015778
0.05 0.03333333 -0.08333332999999998 0.0007513148009015778
0.05 0.03333333 -0.06666667000000004 0.0007513148009015778
0.05 0.03333333 -0.050000000000000044 0.0007513148009015778
0.05 0.03333333 -0.03333333000000005 0.0007513148009015778
0.05 0.03333333 -0.016666669999999995 0.0007513148009015778
0.05 0.05 0.0 0.0007513148009015778
0.05 0.05 0.01666667 0.0007513148009015778
0.05 0.05 0.03333333 0.0007513148009015778
0.05 0.05 0.05 0.0007513148009015778
0.05 0.05 0.06666667 0.0007513148009015778
0.05 0.05 0.08333333 0.0007513148009015778
0.05 0.05 -0.08333332999999998 0.0007513148009015778
0.05 0.05 -0.06666667000000004 0.0007513148009015778
0.05 0.05 -0.050000000000000044 0.0007513148009015778
0.05 0.05 -0.03333333000000005 0.0007513148009015778
0.05 0.05 -0.016666669999999995 0.0007513148009015778
0.05 0.06666667 0.0 0.0007513148009015778
0.05 0.06666667 0.01666667 0.0007513148009015778
0.05 0.06666667 0.03333333 0.0007513148009015778
0.05 0.06666667 0.05 0.0007513148009015778
0.05 0.06666667 0.06666667 0.0007513148009015778
0.05 0.06666667 0.08333333 0.0007513148009015778
0.05 0.06666667 -0.08333332999999998 0.0007513148009015778
0.05 0.06666667 -0.06666667000000004 0.0007513148009015778
0.05 0.06666667 -0.050000000000000044 0.0007513148009015778
0.05 0.06666667 -0.03333333000000005 0.0007513148009015778
0.05 0.06666667 -0.016666669999999995 0.0007513148009015778
0.05 0.08333333 0.0 0.0007513148009015778
0.05 0.08333333 0.01666667 0.0007513148009015778
0.05 0.08333333 0.03333333 0.0007513148009015778
0.05 0.08333333 0.05 0.0007513148009015778
0.05 0.08333333 0.06666667 0.0007513148009015778
0.05 0.08333333 0.08333333 0.0007513148009015778
0.05 0.08333333 -0.08333332999999998 0.0007513148009015778
0.05 0.08333333 -0.06666667000000004 0.0007513148009015778
0.05 0.08333333 -0.050000000000000044 0.0007513148009015778
0.05 0.08333333 -0.03333333000000005 0.0007513148009015778
0.05 0.08333333 -0.016666669999999995 0.0007513148009015778
0.05 -0.08333332999999998 0.0 0.0007513148009015778
0.05 -0.08333332999999998 0.01666667 0.0007513148009015778
0.05 -0.08333332999999998 0.03333333 0.0007513148009015778
0.05 -0.08333332999999998 0.05 0.0007513148009015778
0.05 -0.08333332999999998 0.06666667 0.0007513148009015778
0.05 -0.08333332999999998 0.08333333 0.0007513148009015778
0.05 -0.08333332999999998 -0.08333332999999998 0.0007513148009015778
0.05 -0.08333332999999998 -0.06666667000000004 0.0007513148009015778
0.05 -0.08333332999999998 -0.050000000000000044 0.0007513148009015778
0.05 -0.08333332999999998 -0.03333333000000005 0.0007513148009015778
0.05 -0.08333332999999998 -0.016666669999999995 0.0007513148009015778
0.05 -0.06666667000000004 0.0 0.0007513148009015778
0.05 -0.06666667000000004 0.01666667 0.0007513148009015778
0.05 -0.06666667000000004 0.03333333 0.0007513148009015778
0.05 -0.06666667000000004 0.05 0.0007513148009015778
0.05 -0.06666667000000004 0.06666667 0.0007513148009015778
0.05 -0.06666667000000004 0.08333333 0.0007513148009015778
0.05 -0.06666667000000004 -0.08333332999999998 0.0007513148009015778
0.05 -0.06666667000000004 -0.06666667000000004 0.0007513148009015778
0.05 -0.06666667000000004 -0.050000000000000044 0.0007513148009015778
0.05 -0.06666667000000004 -0.03333333000000005 0.0007513148009015778
0.05 -0.06666667000000004 -0.016666669999999995 0.0007513148009015778
0.05 -0.050000000000000044 0.0 0.0007513148009015778
0.05 -0.050000000000000044 0.01666667 0.0007513148009015778
0.05 -0.050000000000000044 0.03333333 0.0007513148009015778
0.05 -0.050000000000000044 0.05 0.0007513148009015778
0.05 -0.050000000000000044 0.06666667 0.0007513148009015778
0.05 -0.050000000000000044 0.08333333 0.0007513148009015778
0.05 -0.050000000000000044 -0.08333332999999998 0.0007513148009015778
0.05 -0.050000000000000044 -0.06666667000000004 0.0007513148009015778
0.05 -0.050000000000000044 -0.050000000000000044 0.0007513148009015778
0.05 -0.050000000000000044 -0.03333333000000005 0.0007513148009015778
0.05 -0.050000000000000044 -0.016666669999999995 0.0007513148009015778
0.05 -0.03333333000000005 0.0 0.0007513148009015778
0.05 -0.03333333000000005 0.01666667 0.0007513148009015778
0.05 -0.03333333000000005 0.03333333 0.0007513148009015778
0.05 -0.03333333000000005 0.05 0.0007513148009015778
0.05 -0.03333333000000005 0.06666667 0.0007513148009015778
0.05 -0.03333333000000005 0.08333333 0.0007513148009015778
0.05 -0.03333333000000005 -0.08333332999999998 0.0007513148009015778
0.05 -0.03333333000000005 -0.06666667000000004 0.0007513148009015778
0.05 -0.03333333000000005 -0.050000000000000044 0.0007513148009015778
0.05 -0.03333333000000005 -0.03333333000000005 0.0007513148009015778
0.05 -0.03333333000000005 -0.016666669999999995 0.0007513148009015778
0.05 -0.016666669999999995 0.0 0.0007513148009015778
0.05 -0.016666669999999995 0.01666667 0.0007513148009015778
0.05 -0.016666669999999995 0.03333333 0.0007513148009015778
0.05 -0.016666669999999995 0.05 0.0007513148009015778
0.05 -0.016666669999999995 0.06666667 0.0007513148009015778
0.05 -0.016666669999999995 0.08333333 0.0007513148009015778
0.05 -0.016666669999999995 -0.08333332999999998 0.0007513148009015778
0.05 -0.016666669999999995 -0.06666667000000004 0.0007513148009015778
0.05 -0.016666669999999995 -0.050000000000000044 0.0007513148009015778
0.05 -0.016666669999999995 -0.03333333000000005 0.0007513148009015778
0.05 -0.016666669999999995 -0.016666669999999995 0.0007513148009015778
0.06666667 0.0 0.0 0.0007513148009015778
0.06666667 0.0 0.01666667 0.0007513148009015778
0.06666667 0.0 0.03333333 0.0007513148009015778
0.06666667 0.0 0.05 0.0007513148009015778
0.06666667 0.0 0.06666667 0.0007513148009015778
0.06666667 0.0 0.08333333 0.0007513148009015778
0.06666667 0.0 -0.08333332999999998 0.0007513148009015778
0.06666667 0.0 -0.06666667000000004 0.0007513148009015778
0.06666667 0.0 -0.050000000000000044 0.0007513148009015778
0.06666667 0.0 -0.03333333000000005 0.0007513148009015778
0.06666667 0.0 -0.016666669999999995 0.0007513148009015778
0.06666667 0.01666667 0.0 0.0007513148009015778
0.06666667 0.01666667 0.01666667 0.0007513148009015778
0.06666667 0.01666667 0.03333333 0.0007513148009015778
0.06666667 0.01666667 0.05 0.0007513148009015778
0.06666667 0.01666667 0.06666667 0.0007513148009015778