&CONTROL
   prefix = 'swcnt_5-5'
   calculation = 'bands'
   restart_mode = 'from_scratch'
   wf_collect = .true.
   tstress = .false.
   tprnfor = .false.
   outdir = './'
   wfcdir = './'
   pseudo_dir = './'
/
&SYSTEM
   ibrav = 0
   nat = 20
   ntyp = 1
   nbnd = 45
   ecutwfc = 60.0
   occupations = 'smearing'
   smearing = 'mv'
   degauss = 0.03
/
&ELECTRONS
   electron_maxstep = 100
   conv_thr = 1.0d-10
   mixing_mode = 'plain'
   mixing_beta = 0.7
   mixing_ndim = 8
   diagonalization = 'david'
   diago_david_ndim = 4
   diago_full_acc = .true.
   startingwfc = 'random'
/
CELL_PARAMETERS bohr
      25.980765000  15.000000000   0.000000000
       0.000000000  30.000000000   0.000000000
       0.000000000   0.000000000   4.618514866
ATOMIC_SPECIES
   C  12.011  C.UPF
ATOMIC_POSITIONS bohr
   C   6.412934963   0.010727526  -2.309059641
   C   5.860088757   2.603973456  -2.309046518
   C   5.181323387   3.778295303   0.000062614
   C   3.209932498   5.551509434   0.000102849
   C   1.970634656   6.102764187  -2.309078202
   C  -0.666529911   6.378854774  -2.309105123
   C  -1.993272198   6.096205773   0.000121776
   C  -4.288707127   4.769476994   0.000115278
   C  -5.195737267   3.761317926  -2.309098437
   C  -6.272779263   1.338241688  -2.309082339
   C  -6.413899369  -0.010887296   0.000107356
   C  -5.860913865  -2.604050212   0.000055178
   C  -5.182293573  -3.778450693  -2.309048443
   C  -3.210932461  -5.551552567  -2.308972407
   C  -1.971447797  -6.102799013  -0.000004484
   C   0.665697975  -6.378913183   0.000033691
   C   1.992051541  -6.096333987  -2.309003121
   C   4.287751503  -4.769568919  -2.309075737
   C   5.195055898  -3.761177273   0.000089857
   C   6.271861595  -1.338286272   0.000074779
K_POINTS crystal
  128
  0.000000000  0.000000000  0.003906250   1.0
  0.000000000  0.000000000  0.011718750   1.0
  0.000000000  0.000000000  0.019531250   1.0
  0.000000000  0.000000000  0.027343750   1.0
  0.000000000  0.000000000  0.035156250   1.0
  0.000000000  0.000000000  0.042968750   1.0
  0.000000000  0.000000000  0.050781250   1.0
  0.000000000  0.000000000  0.058593750   1.0
  0.000000000  0.000000000  0.066406250   1.0
  0.000000000  0.000000000  0.074218750   1.0
  0.000000000  0.000000000  0.082031250   1.0
  0.000000000  0.000000000  0.089843750   1.0
  0.000000000  0.000000000  0.097656250   1.0
  0.000000000  0.000000000  0.105468750   1.0
  0.000000000  0.000000000  0.113281250   1.0
  0.000000000  0.000000000  0.121093750   1.0
  0.000000000  0.000000000  0.128906250   1.0
  0.000000000  0.000000000  0.136718750   1.0
  0.000000000  0.000000000  0.144531250   1.0
  0.000000000  0.000000000  0.152343750   1.0
  0.000000000  0.000000000  0.160156250   1.0
  0.000000000  0.000000000  0.167968750   1.0
  0.000000000  0.000000000  0.175781250   1.0
  0.000000000  0.000000000  0.183593750   1.0
  0.000000000  0.000000000  0.191406250   1.0
  0.000000000  0.000000000  0.199218750   1.0
  0.000000000  0.000000000  0.207031250   1.0
  0.000000000  0.000000000  0.214843750   1.0
  0.000000000  0.000000000  0.222656250   1.0
  0.000000000  0.000000000  0.230468750   1.0
  0.000000000  0.000000000  0.238281250   1.0
  0.000000000  0.000000000  0.246093750   1.0
  0.000000000  0.000000000  0.253906250   1.0
  0.000000000  0.000000000  0.261718750   1.0
  0.000000000  0.000000000  0.269531250   1.0
  0.000000000  0.000000000  0.277343750   1.0
  0.000000000  0.000000000  0.285156250   1.0
  0.000000000  0.000000000  0.292968750   1.0
  0.000000000  0.000000000  0.300781250   1.0
  0.000000000  0.000000000  0.308593750   1.0
  0.000000000  0.000000000  0.316406250   1.0
  0.000000000  0.000000000  0.324218750   1.0
  0.000000000  0.000000000  0.332031250   1.0
  0.000000000  0.000000000  0.339843750   1.0
  0.000000000  0.000000000  0.347656250   1.0
  0.000000000  0.000000000  0.355468750   1.0
  0.000000000  0.000000000  0.363281250   1.0
  0.000000000  0.000000000  0.371093750   1.0
  0.000000000  0.000000000  0.378906250   1.0
  0.000000000  0.000000000  0.386718750   1.0
  0.000000000  0.000000000  0.394531250   1.0
  0.000000000  0.000000000  0.402343750   1.0
  0.000000000  0.000000000  0.410156250   1.0
  0.000000000  0.000000000  0.417968750   1.0
  0.000000000  0.000000000  0.425781250   1.0
  0.000000000  0.000000000  0.433593750   1.0
  0.000000000  0.000000000  0.441406250   1.0
  0.000000000  0.000000000  0.449218750   1.0
  0.000000000  0.000000000  0.457031250   1.0
  0.000000000  0.000000000  0.464843750   1.0
  0.000000000  0.000000000  0.472656250   1.0
  0.000000000  0.000000000  0.480468750   1.0
  0.000000000  0.000000000  0.488281250   1.0
  0.000000000  0.000000000  0.496093750   1.0
  0.000000000  0.000000000  0.503906250   1.0
  0.000000000  0.000000000  0.511718750   1.0
  0.000000000  0.000000000  0.519531250   1.0
  0.000000000  0.000000000  0.527343750   1.0
  0.000000000  0.000000000  0.535156250   1.0
  0.000000000  0.000000000  0.542968750   1.0
  0.000000000  0.000000000  0.550781250   1.0
  0.000000000  0.000000000  0.558593750   1.0
  0.000000000  0.000000000  0.566406250   1.0
  0.000000000  0.000000000  0.574218750   1.0
  0.000000000  0.000000000  0.582031250   1.0
  0.000000000  0.000000000  0.589843750   1.0
  0.000000000  0.000000000  0.597656250   1.0
  0.000000000  0.000000000  0.605468750   1.0
  0.000000000  0.000000000  0.613281250   1.0
  0.000000000  0.000000000  0.621093750   1.0
  0.000000000  0.000000000  0.628906250   1.0
  0.000000000  0.000000000  0.636718750   1.0
  0.000000000  0.000000000  0.644531250   1.0
  0.000000000  0.000000000  0.652343750   1.0
  0.000000000  0.000000000  0.660156250   1.0
  0.000000000  0.000000000  0.667968750   1.0
  0.000000000  0.000000000  0.675781250   1.0
  0.000000000  0.000000000  0.683593750   1.0
  0.000000000  0.000000000  0.691406250   1.0
  0.000000000  0.000000000  0.699218750   1.0
  0.000000000  0.000000000  0.707031250   1.0
  0.000000000  0.000000000  0.714843750   1.0
  0.000000000  0.000000000  0.722656250   1.0
  0.000000000  0.000000000  0.730468750   1.0
  0.000000000  0.000000000  0.738281250   1.0
  0.000000000  0.000000000  0.746093750   1.0
  0.000000000  0.000000000  0.753906250   1.0
  0.000000000  0.000000000  0.761718750   1.0
  0.000000000  0.000000000  0.769531250   1.0
  0.000000000  0.000000000  0.777343750   1.0
  0.000000000  0.000000000  0.785156250   1.0
  0.000000000  0.000000000  0.792968750   1.0
  0.000000000  0.000000000  0.800781250   1.0
  0.000000000  0.000000000  0.808593750   1.0
  0.000000000  0.000000000  0.816406250   1.0
  0.000000000  0.000000000  0.824218750   1.0
  0.000000000  0.000000000  0.832031250   1.0
  0.000000000  0.000000000  0.839843750   1.0
  0.000000000  0.000000000  0.847656250   1.0
  0.000000000  0.000000000  0.855468750   1.0
  0.000000000  0.000000000  0.863281250   1.0
  0.000000000  0.000000000  0.871093750   1.0
  0.000000000  0.000000000  0.878906250   1.0
  0.000000000  0.000000000  0.886718750   1.0
  0.000000000  0.000000000  0.894531250   1.0
  0.000000000  0.000000000  0.902343750   1.0
  0.000000000  0.000000000  0.910156250   1.0
  0.000000000  0.000000000  0.917968750   1.0
  0.000000000  0.000000000  0.925781250   1.0
  0.000000000  0.000000000  0.933593750   1.0
  0.000000000  0.000000000  0.941406250   1.0
  0.000000000  0.000000000  0.949218750   1.0
  0.000000000  0.000000000  0.957031250   1.0
  0.000000000  0.000000000  0.964843750   1.0
  0.000000000  0.000000000  0.972656250   1.0
  0.000000000  0.000000000  0.980468750   1.0
  0.000000000  0.000000000  0.988281250   1.0
  0.000000000  0.000000000  0.996093750   1.0
