&CONTROL
prefix='silicon',
calculation='bands',
restart_mode='from_scratch',
disk_io = 'low',
pseudo_dir='../../../pseudo/ld1/',
outdir = './',
wf_collect=.TRUE.,    
 /
&SYSTEM
ibrav = 0,
nat = 2,
ntyp = 1,
nbnd = 12,
ecutwfc = 25.0,
nspin = 4
noncolin=.TRUE.
constrained_magnetization='none'
lspinorb=.TRUE.
 /
&ELECTRONS
startingwfc='atomic+random',
diago_full_acc = .true.,
electron_maxstep=200,
conv_thr=1.0D-10,
mixing_mode='plain',
mixing_beta=0.7D0,
diagonalization='david',
 /
CELL_PARAMETERS angstrom
     2.715 2.715 0.000
     0.000 2.715 2.715
     2.715 0.000 2.715
ATOMIC_SPECIES
Si 1 Si_FR.UPF
ATOMIC_POSITIONS crystal
Si  -0.125  -0.125  -0.125  1 1 1
Si   0.125   0.125   0.125  1 1 1
K_POINTS crystal
 1000
  0.047000000  0.037000000  0.032000000   1.0
  0.047000000  0.037000000  0.132000000   1.0
  0.047000000  0.037000000  0.232000000   1.0
  0.047000000  0.037000000  0.332000000   1.0
  0.047000000  0.037000000  0.432000000   1.0
  0.047000000  0.037000000  0.532000000   1.0
  0.047000000  0.037000000  0.632000000   1.0
  0.047000000  0.037000000  0.732000000   1.0
  0.047000000  0.037000000  0.832000000   1.0
  0.047000000  0.037000000  0.932000000   1.0
  0.047000000  0.137000000  0.032000000   1.0
  0.047000000  0.137000000  0.132000000   1.0
  0.047000000  0.137000000  0.232000000   1.0
  0.047000000  0.137000000  0.332000000   1.0
  0.047000000  0.137000000  0.432000000   1.0
  0.047000000  0.137000000  0.532000000   1.0
  0.047000000  0.137000000  0.632000000   1.0
  0.047000000  0.137000000  0.732000000   1.0
  0.047000000  0.137000000  0.832000000   1.0
  0.047000000  0.137000000  0.932000000   1.0
  0.047000000  0.237000000  0.032000000   1.0
  0.047000000  0.237000000  0.132000000   1.0
  0.047000000  0.237000000  0.232000000   1.0
  0.047000000  0.237000000  0.332000000   1.0
  0.047000000  0.237000000  0.432000000   1.0
  0.047000000  0.237000000  0.532000000   1.0
  0.047000000  0.237000000  0.632000000   1.0
  0.047000000  0.237000000  0.732000000   1.0
  0.047000000  0.237000000  0.832000000   1.0
  0.047000000  0.237000000  0.932000000   1.0
  0.047000000  0.337000000  0.032000000   1.0
  0.047000000  0.337000000  0.132000000   1.0
  0.047000000  0.337000000  0.232000000   1.0
  0.047000000  0.337000000  0.332000000   1.0
  0.047000000  0.337000000  0.432000000   1.0
  0.047000000  0.337000000  0.532000000   1.0
  0.047000000  0.337000000  0.632000000   1.0
  0.047000000  0.337000000  0.732000000   1.0
  0.047000000  0.337000000  0.832000000   1.0
  0.047000000  0.337000000  0.932000000   1.0
  0.047000000  0.437000000  0.032000000   1.0
  0.047000000  0.437000000  0.132000000   1.0
  0.047000000  0.437000000  0.232000000   1.0
  0.047000000  0.437000000  0.332000000   1.0
  0.047000000  0.437000000  0.432000000   1.0
  0.047000000  0.437000000  0.532000000   1.0
  0.047000000  0.437000000  0.632000000   1.0
  0.047000000  0.437000000  0.732000000   1.0
  0.047000000  0.437000000  0.832000000   1.0
  0.047000000  0.437000000  0.932000000   1.0
  0.047000000  0.537000000  0.032000000   1.0
  0.047000000  0.537000000  0.132000000   1.0
  0.047000000  0.537000000  0.232000000   1.0
  0.047000000  0.537000000  0.332000000   1.0
  0.047000000  0.537000000  0.432000000   1.0
  0.047000000  0.537000000  0.532000000   1.0
  0.047000000  0.537000000  0.632000000   1.0
  0.047000000  0.537000000  0.732000000   1.0
  0.047000000  0.537000000  0.832000000   1.0
  0.047000000  0.537000000  0.932000000   1.0
  0.047000000  0.637000000  0.032000000   1.0
  0.047000000  0.637000000  0.132000000   1.0
  0.047000000  0.637000000  0.232000000   1.0
  0.047000000  0.637000000  0.332000000   1.0
  0.047000000  0.637000000  0.432000000   1.0
  0.047000000  0.637000000  0.532000000   1.0
  0.047000000  0.637000000  0.632000000   1.0
  0.047000000  0.637000000  0.732000000   1.0
  0.047000000  0.637000000  0.832000000   1.0
  0.047000000  0.637000000  0.932000000   1.0
  0.047000000  0.737000000  0.032000000   1.0
  0.047000000  0.737000000  0.132000000   1.0
  0.047000000  0.737000000  0.232000000   1.0
  0.047000000  0.737000000  0.332000000   1.0
  0.047000000  0.737000000  0.432000000   1.0
  0.047000000  0.737000000  0.532000000   1.0
  0.047000000  0.737000000  0.632000000   1.0
  0.047000000  0.737000000  0.732000000   1.0
  0.047000000  0.737000000  0.832000000   1.0
  0.047000000  0.737000000  0.932000000   1.0
  0.047000000  0.837000000  0.032000000   1.0
  0.047000000  0.837000000  0.132000000   1.0
  0.047000000  0.837000000  0.232000000   1.0
  0.047000000  0.837000000  0.332000000   1.0
  0.047000000  0.837000000  0.432000000   1.0
  0.047000000  0.837000000  0.532000000   1.0
  0.047000000  0.837000000  0.632000000   1.0
  0.047000000  0.837000000  0.732000000   1.0
  0.047000000  0.837000000  0.832000000   1.0
  0.047000000  0.837000000  0.932000000   1.0
  0.047000000  0.937000000  0.032000000   1.0
  0.047000000  0.937000000  0.132000000   1.0
  0.047000000  0.937000000  0.232000000   1.0
  0.047000000  0.937000000  0.332000000   1.0
  0.047000000  0.937000000  0.432000000   1.0
  0.047000000  0.937000000  0.532000000   1.0
  0.047000000  0.937000000  0.632000000   1.0
  0.047000000  0.937000000  0.732000000   1.0
  0.047000000  0.937000000  0.832000000   1.0
  0.047000000  0.937000000  0.932000000   1.0
  0.147000000  0.037000000  0.032000000   1.0
  0.147000000  0.037000000  0.132000000   1.0
  0.147000000  0.037000000  0.232000000   1.0
  0.147000000  0.037000000  0.332000000   1.0
  0.147000000  0.037000000  0.432000000   1.0
  0.147000000  0.037000000  0.532000000   1.0
  0.147000000  0.037000000  0.632000000   1.0
  0.147000000  0.037000000  0.732000000   1.0
  0.147000000  0.037000000  0.832000000   1.0
  0.147000000  0.037000000  0.932000000   1.0
  0.147000000  0.137000000  0.032000000   1.0
  0.147000000  0.137000000  0.132000000   1.0
  0.147000000  0.137000000  0.232000000   1.0
  0.147000000  0.137000000  0.332000000   1.0
  0.147000000  0.137000000  0.432000000   1.0
  0.147000000  0.137000000  0.532000000   1.0
  0.147000000  0.137000000  0.632000000   1.0
  0.147000000  0.137000000  0.732000000   1.0
  0.147000000  0.137000000  0.832000000   1.0
  0.147000000  0.137000000  0.932000000   1.0
  0.147000000  0.237000000  0.032000000   1.0
  0.147000000  0.237000000  0.132000000   1.0
  0.147000000  0.237000000  0.232000000   1.0
  0.147000000  0.237000000  0.332000000   1.0
  0.147000000  0.237000000  0.432000000   1.0
  0.147000000  0.237000000  0.532000000   1.0
  0.147000000  0.237000000  0.632000000   1.0
  0.147000000  0.237000000  0.732000000   1.0
  0.147000000  0.237000000  0.832000000   1.0
  0.147000000  0.237000000  0.932000000   1.0
  0.147000000  0.337000000  0.032000000   1.0
  0.147000000  0.337000000  0.132000000   1.0
  0.147000000  0.337000000  0.232000000   1.0
  0.147000000  0.337000000  0.332000000   1.0
  0.147000000  0.337000000  0.432000000   1.0
  0.147000000  0.337000000  0.532000000   1.0
  0.147000000  0.337000000  0.632000000   1.0
  0.147000000  0.337000000  0.732000000   1.0
  0.147000000  0.337000000  0.832000000   1.0
  0.147000000  0.337000000  0.932000000   1.0
  0.147000000  0.437000000  0.032000000   1.0
  0.147000000  0.437000000  0.132000000   1.0
  0.147000000  0.437000000  0.232000000   1.0
  0.147000000  0.437000000  0.332000000   1.0
  0.147000000  0.437000000  0.432000000   1.0
  0.147000000  0.437000000  0.532000000   1.0
  0.147000000  0.437000000  0.632000000   1.0
  0.147000000  0.437000000  0.732000000   1.0
  0.147000000  0.437000000  0.832000000   1.0
  0.147000000  0.437000000  0.932000000   1.0
  0.147000000  0.537000000  0.032000000   1.0
  0.147000000  0.537000000  0.132000000   1.0
  0.147000000  0.537000000  0.232000000   1.0
  0.147000000  0.537000000  0.332000000   1.0
  0.147000000  0.537000000  0.432000000   1.0
  0.147000000  0.537000000  0.532000000   1.0
  0.147000000  0.537000000  0.632000000   1.0
  0.147000000  0.537000000  0.732000000   1.0
  0.147000000  0.537000000  0.832000000   1.0
  0.147000000  0.537000000  0.932000000   1.0
  0.147000000  0.637000000  0.032000000   1.0
  0.147000000  0.637000000  0.132000000   1.0
  0.147000000  0.637000000  0.232000000   1.0
  0.147000000  0.637000000  0.332000000   1.0
  0.147000000  0.637000000  0.432000000   1.0
  0.147000000  0.637000000  0.532000000   1.0
  0.147000000  0.637000000  0.632000000   1.0
  0.147000000  0.637000000  0.732000000   1.0
  0.147000000  0.637000000  0.832000000   1.0
  0.147000000  0.637000000  0.932000000   1.0
  0.147000000  0.737000000  0.032000000   1.0
  0.147000000  0.737000000  0.132000000   1.0
  0.147000000  0.737000000  0.232000000   1.0
  0.147000000  0.737000000  0.332000000   1.0
  0.147000000  0.737000000  0.432000000   1.0
  0.147000000  0.737000000  0.532000000   1.0
  0.147000000  0.737000000  0.632000000   1.0
  0.147000000  0.737000000  0.732000000   1.0
  0.147000000  0.737000000  0.832000000   1.0
  0.147000000  0.737000000  0.932000000   1.0
  0.147000000  0.837000000  0.032000000   1.0
  0.147000000  0.837000000  0.132000000   1.0
  0.147000000  0.837000000  0.232000000   1.0
  0.147000000  0.837000000  0.332000000   1.0
  0.147000000  0.837000000  0.432000000   1.0
  0.147000000  0.837000000  0.532000000   1.0
  0.147000000  0.837000000  0.632000000   1.0
  0.147000000  0.837000000  0.732000000   1.0
  0.147000000  0.837000000  0.832000000   1.0
  0.147000000  0.837000000  0.932000000   1.0
  0.147000000  0.937000000  0.032000000   1.0
  0.147000000  0.937000000  0.132000000   1.0
  0.147000000  0.937000000  0.232000000   1.0
  0.147000000  0.937000000  0.332000000   1.0
  0.147000000  0.937000000  0.432000000   1.0
  0.147000000  0.937000000  0.532000000   1.0
  0.147000000  0.937000000  0.632000000   1.0
  0.147000000  0.937000000  0.732000000   1.0
  0.147000000  0.937000000  0.832000000   1.0
  0.147000000  0.937000000  0.932000000   1.0
  0.247000000  0.037000000  0.032000000   1.0
  0.247000000  0.037000000  0.132000000   1.0
  0.247000000  0.037000000  0.232000000   1.0
  0.247000000  0.037000000  0.332000000   1.0
  0.247000000  0.037000000  0.432000000   1.0
  0.247000000  0.037000000  0.532000000   1.0
  0.247000000  0.037000000  0.632000000   1.0
  0.247000000  0.037000000  0.732000000   1.0
  0.247000000  0.037000000  0.832000000   1.0
  0.247000000  0.037000000  0.932000000   1.0
  0.247000000  0.137000000  0.032000000   1.0
  0.247000000  0.137000000  0.132000000   1.0
  0.247000000  0.137000000  0.232000000   1.0
  0.247000000  0.137000000  0.332000000   1.0
  0.247000000  0.137000000  0.432000000   1.0
  0.247000000  0.137000000  0.532000000   1.0
  0.247000000  0.137000000  0.632000000   1.0
  0.247000000  0.137000000  0.732000000   1.0
  0.247000000  0.137000000  0.832000000   1.0
  0.247000000  0.137000000  0.932000000   1.0
  0.247000000  0.237000000  0.032000000   1.0
  0.247000000  0.237000000  0.132000000   1.0
  0.247000000  0.237000000  0.232000000   1.0
  0.247000000  0.237000000  0.332000000   1.0
  0.247000000  0.237000000  0.432000000   1.0
  0.247000000  0.237000000  0.532000000   1.0
  0.247000000  0.237000000  0.632000000   1.0
  0.247000000  0.237000000  0.732000000   1.0
  0.247000000  0.237000000  0.832000000   1.0
  0.247000000  0.237000000  0.932000000   1.0
  0.247000000  0.337000000  0.032000000   1.0
  0.247000000  0.337000000  0.132000000   1.0
  0.247000000  0.337000000  0.232000000   1.0
  0.247000000  0.337000000  0.332000000   1.0
  0.247000000  0.337000000  0.432000000   1.0
  0.247000000  0.337000000  0.532000000   1.0
  0.247000000  0.337000000  0.632000000   1.0
  0.247000000  0.337000000  0.732000000   1.0
  0.247000000  0.337000000  0.832000000   1.0
  0.247000000  0.337000000  0.932000000   1.0
  0.247000000  0.437000000  0.032000000   1.0
  0.247000000  0.437000000  0.132000000   1.0
  0.247000000  0.437000000  0.232000000   1.0
  0.247000000  0.437000000  0.332000000   1.0
  0.247000000  0.437000000  0.432000000   1.0
  0.247000000  0.437000000  0.532000000   1.0
  0.247000000  0.437000000  0.632000000   1.0
  0.247000000  0.437000000  0.732000000   1.0
  0.247000000  0.437000000  0.832000000   1.0
  0.247000000  0.437000000  0.932000000   1.0
  0.247000000  0.537000000  0.032000000   1.0
  0.247000000  0.537000000  0.132000000   1.0
  0.247000000  0.537000000  0.232000000   1.0
  0.247000000  0.537000000  0.332000000   1.0
  0.247000000  0.537000000  0.432000000   1.0
  0.247000000  0.537000000  0.532000000   1.0
  0.247000000  0.537000000  0.632000000   1.0
  0.247000000  0.537000000  0.732000000   1.0
  0.247000000  0.537000000  0.832000000   1.0
  0.247000000  0.537000000  0.932000000   1.0
  0.247000000  0.637000000  0.032000000   1.0
  0.247000000  0.637000000  0.132000000   1.0
  0.247000000  0.637000000  0.232000000   1.0
  0.247000000  0.637000000  0.332000000   1.0
  0.247000000  0.637000000  0.432000000   1.0
  0.247000000  0.637000000  0.532000000   1.0
  0.247000000  0.637000000  0.632000000   1.0
  0.247000000  0.637000000  0.732000000   1.0
  0.247000000  0.637000000  0.832000000   1.0
  0.247000000  0.637000000  0.932000000   1.0
  0.247000000  0.737000000  0.032000000   1.0
  0.247000000  0.737000000  0.132000000   1.0
  0.247000000  0.737000000  0.232000000   1.0
  0.247000000  0.737000000  0.332000000   1.0
  0.247000000  0.737000000  0.432000000   1.0
  0.247000000  0.737000000  0.532000000   1.0
  0.247000000  0.737000000  0.632000000   1.0
  0.247000000  0.737000000  0.732000000   1.0
  0.247000000  0.737000000  0.832000000   1.0
  0.247000000  0.737000000  0.932000000   1.0
  0.247000000  0.837000000  0.032000000   1.0
  0.247000000  0.837000000  0.132000000   1.0
  0.247000000  0.837000000  0.232000000   1.0
  0.247000000  0.837000000  0.332000000   1.0
  0.247000000  0.837000000  0.432000000   1.0
  0.247000000  0.837000000  0.532000000   1.0
  0.247000000  0.837000000  0.632000000   1.0
  0.247000000  0.837000000  0.732000000   1.0
  0.247000000  0.837000000  0.832000000   1.0
  0.247000000  0.837000000  0.932000000   1.0
  0.247000000  0.937000000  0.032000000   1.0
  0.247000000  0.937000000  0.132000000   1.0
  0.247000000  0.937000000  0.232000000   1.0
  0.247000000  0.937000000  0.332000000   1.0
  0.247000000  0.937000000  0.432000000   1.0
  0.247000000  0.937000000  0.532000000   1.0
  0.247000000  0.937000000  0.632000000   1.0
  0.247000000  0.937000000  0.732000000   1.0
  0.247000000  0.937000000  0.832000000   1.0
  0.247000000  0.937000000  0.932000000   1.0
  0.347000000  0.037000000  0.032000000   1.0
  0.347000000  0.037000000  0.132000000   1.0
  0.347000000  0.037000000  0.232000000   1.0
  0.347000000  0.037000000  0.332000000   1.0
  0.347000000  0.037000000  0.432000000   1.0
  0.347000000  0.037000000  0.532000000   1.0
  0.347000000  0.037000000  0.632000000   1.0
  0.347000000  0.037000000  0.732000000   1.0
  0.347000000  0.037000000  0.832000000   1.0
  0.347000000  0.037000000  0.932000000   1.0
  0.347000000  0.137000000  0.032000000   1.0
  0.347000000  0.137000000  0.132000000   1.0
  0.347000000  0.137000000  0.232000000   1.0
  0.347000000  0.137000000  0.332000000   1.0
  0.347000000  0.137000000  0.432000000   1.0
  0.347000000  0.137000000  0.532000000   1.0
  0.347000000  0.137000000  0.632000000   1.0
  0.347000000  0.137000000  0.732000000   1.0
  0.347000000  0.137000000  0.832000000   1.0
  0.347000000  0.137000000  0.932000000   1.0
  0.347000000  0.237000000  0.032000000   1.0
  0.347000000  0.237000000  0.132000000   1.0
  0.347000000  0.237000000  0.232000000   1.0
  0.347000000  0.237000000  0.332000000   1.0
  0.347000000  0.237000000  0.432000000   1.0
  0.347000000  0.237000000  0.532000000   1.0
  0.347000000  0.237000000  0.632000000   1.0
  0.347000000  0.237000000  0.732000000   1.0
  0.347000000  0.237000000  0.832000000   1.0
  0.347000000  0.237000000  0.932000000   1.0
  0.347000000  0.337000000  0.032000000   1.0
  0.347000000  0.337000000  0.132000000   1.0
  0.347000000  0.337000000  0.232000000   1.0
  0.347000000  0.337000000  0.332000000   1.0
  0.347000000  0.337000000  0.432000000   1.0
  0.347000000  0.337000000  0.532000000   1.0
  0.347000000  0.337000000  0.632000000   1.0
  0.347000000  0.337000000  0.732000000   1.0
  0.347000000  0.337000000  0.832000000   1.0
  0.347000000  0.337000000  0.932000000   1.0
  0.347000000  0.437000000  0.032000000   1.0
  0.347000000  0.437000000  0.132000000   1.0
  0.347000000  0.437000000  0.232000000   1.0
  0.347000000  0.437000000  0.332000000   1.0
  0.347000000  0.437000000  0.432000000   1.0
  0.347000000  0.437000000  0.532000000   1.0
  0.347000000  0.437000000  0.632000000   1.0
  0.347000000  0.437000000  0.732000000   1.0
  0.347000000  0.437000000  0.832000000   1.0
  0.347000000  0.437000000  0.932000000   1.0
  0.347000000  0.537000000  0.032000000   1.0
  0.347000000  0.537000000  0.132000000   1.0
  0.347000000  0.537000000  0.232000000   1.0
  0.347000000  0.537000000  0.332000000   1.0
  0.347000000  0.537000000  0.432000000   1.0
  0.347000000  0.537000000  0.532000000   1.0
  0.347000000  0.537000000  0.632000000   1.0
  0.347000000  0.537000000  0.732000000   1.0
  0.347000000  0.537000000  0.832000000   1.0
  0.347000000  0.537000000  0.932000000   1.0
  0.347000000  0.637000000  0.032000000   1.0
  0.347000000  0.637000000  0.132000000   1.0
  0.347000000  0.637000000  0.232000000   1.0
  0.347000000  0.637000000  0.332000000   1.0
  0.347000000  0.637000000  0.432000000   1.0
  0.347000000  0.637000000  0.532000000   1.0
  0.347000000  0.637000000  0.632000000   1.0
  0.347000000  0.637000000  0.732000000   1.0
  0.347000000  0.637000000  0.832000000   1.0
  0.347000000  0.637000000  0.932000000   1.0
  0.347000000  0.737000000  0.032000000   1.0
  0.347000000  0.737000000  0.132000000   1.0
  0.347000000  0.737000000  0.232000000   1.0
  0.347000000  0.737000000  0.332000000   1.0
  0.347000000  0.737000000  0.432000000   1.0
  0.347000000  0.737000000  0.532000000   1.0
  0.347000000  0.737000000  0.632000000   1.0
  0.347000000  0.737000000  0.732000000   1.0
  0.347000000  0.737000000  0.832000000   1.0
  0.347000000  0.737000000  0.932000000   1.0
  0.347000000  0.837000000  0.032000000   1.0
  0.347000000  0.837000000  0.132000000   1.0
  0.347000000  0.837000000  0.232000000   1.0
  0.347000000  0.837000000  0.332000000   1.0
  0.347000000  0.837000000  0.432000000   1.0
  0.347000000  0.837000000  0.532000000   1.0
  0.347000000  0.837000000  0.632000000   1.0
  0.347000000  0.837000000  0.732000000   1.0
  0.347000000  0.837000000  0.832000000   1.0
  0.347000000  0.837000000  0.932000000   1.0
  0.347000000  0.937000000  0.032000000   1.0
  0.347000000  0.937000000  0.132000000   1.0
  0.347000000  0.937000000  0.232000000   1.0
  0.347000000  0.937000000  0.332000000   1.0
  0.347000000  0.937000000  0.432000000   1.0
  0.347000000  0.937000000  0.532000000   1.0
  0.347000000  0.937000000  0.632000000   1.0
  0.347000000  0.937000000  0.732000000   1.0
  0.347000000  0.937000000  0.832000000   1.0
  0.347000000  0.937000000  0.932000000   1.0
  0.447000000  0.037000000  0.032000000   1.0
  0.447000000  0.037000000  0.132000000   1.0
  0.447000000  0.037000000  0.232000000   1.0
  0.447000000  0.037000000  0.332000000   1.0
  0.447000000  0.037000000  0.432000000   1.0
  0.447000000  0.037000000  0.532000000   1.0
  0.447000000  0.037000000  0.632000000   1.0
  0.447000000  0.037000000  0.732000000   1.0
  0.447000000  0.037000000  0.832000000   1.0
  0.447000000  0.037000000  0.932000000   1.0
  0.447000000  0.137000000  0.032000000   1.0
  0.447000000  0.137000000  0.132000000   1.0
  0.447000000  0.137000000  0.232000000   1.0
  0.447000000  0.137000000  0.332000000   1.0
  0.447000000  0.137000000  0.432000000   1.0
  0.447000000  0.137000000  0.532000000   1.0
  0.447000000  0.137000000  0.632000000   1.0
  0.447000000  0.137000000  0.732000000   1.0
  0.447000000  0.137000000  0.832000000   1.0
  0.447000000  0.137000000  0.932000000   1.0
  0.447000000  0.237000000  0.032000000   1.0
  0.447000000  0.237000000  0.132000000   1.0
  0.447000000  0.237000000  0.232000000   1.0
  0.447000000  0.237000000  0.332000000   1.0
  0.447000000  0.237000000  0.432000000   1.0
  0.447000000  0.237000000  0.532000000   1.0
  0.447000000  0.237000000  0.632000000   1.0
  0.447000000  0.237000000  0.732000000   1.0
  0.447000000  0.237000000  0.832000000   1.0
  0.447000000  0.237000000  0.932000000   1.0
  0.447000000  0.337000000  0.032000000   1.0
  0.447000000  0.337000000  0.132000000   1.0
  0.447000000  0.337000000  0.232000000   1.0
  0.447000000  0.337000000  0.332000000   1.0
  0.447000000  0.337000000  0.432000000   1.0
  0.447000000  0.337000000  0.532000000   1.0
  0.447000000  0.337000000  0.632000000   1.0
  0.447000000  0.337000000  0.732000000   1.0
  0.447000000  0.337000000  0.832000000   1.0
  0.447000000  0.337000000  0.932000000   1.0
  0.447000000  0.437000000  0.032000000   1.0
  0.447000000  0.437000000  0.132000000   1.0
  0.447000000  0.437000000  0.232000000   1.0
  0.447000000  0.437000000  0.332000000   1.0
  0.447000000  0.437000000  0.432000000   1.0
  0.447000000  0.437000000  0.532000000   1.0
  0.447000000  0.437000000  0.632000000   1.0
  0.447000000  0.437000000  0.732000000   1.0
  0.447000000  0.437000000  0.832000000   1.0
  0.447000000  0.437000000  0.932000000   1.0
  0.447000000  0.537000000  0.032000000   1.0
  0.447000000  0.537000000  0.132000000   1.0
  0.447000000  0.537000000  0.232000000   1.0
  0.447000000  0.537000000  0.332000000   1.0
  0.447000000  0.537000000  0.432000000   1.0
  0.447000000  0.537000000  0.532000000   1.0
  0.447000000  0.537000000  0.632000000   1.0
  0.447000000  0.537000000  0.732000000   1.0
  0.447000000  0.537000000  0.832000000   1.0
  0.447000000  0.537000000  0.932000000   1.0
  0.447000000  0.637000000  0.032000000   1.0
  0.447000000  0.637000000  0.132000000   1.0
  0.447000000  0.637000000  0.232000000   1.0
  0.447000000  0.637000000  0.332000000   1.0
  0.447000000  0.637000000  0.432000000   1.0
  0.447000000  0.637000000  0.532000000   1.0
  0.447000000  0.637000000  0.632000000   1.0
  0.447000000  0.637000000  0.732000000   1.0
  0.447000000  0.637000000  0.832000000   1.0
  0.447000000  0.637000000  0.932000000   1.0
  0.447000000  0.737000000  0.032000000   1.0
  0.447000000  0.737000000  0.132000000   1.0
  0.447000000  0.737000000  0.232000000   1.0
  0.447000000  0.737000000  0.332000000   1.0
  0.447000000  0.737000000  0.432000000   1.0
  0.447000000  0.737000000  0.532000000   1.0
  0.447000000  0.737000000  0.632000000   1.0
  0.447000000  0.737000000  0.732000000   1.0
  0.447000000  0.737000000  0.832000000   1.0
  0.447000000  0.737000000  0.932000000   1.0
  0.447000000  0.837000000  0.032000000   1.0
  0.447000000  0.837000000  0.132000000   1.0
  0.447000000  0.837000000  0.232000000   1.0
  0.447000000  0.837000000  0.332000000   1.0
  0.447000000  0.837000000  0.432000000   1.0
  0.447000000  0.837000000  0.532000000   1.0
  0.447000000  0.837000000  0.632000000   1.0
  0.447000000  0.837000000  0.732000000   1.0
  0.447000000  0.837000000  0.832000000   1.0
  0.447000000  0.837000000  0.932000000   1.0
  0.447000000  0.937000000  0.032000000   1.0
  0.447000000  0.937000000  0.132000000   1.0
  0.447000000  0.937000000  0.232000000   1.0
  0.447000000  0.937000000  0.332000000   1.0
  0.447000000  0.937000000  0.432000000   1.0
  0.447000000  0.937000000  0.532000000   1.0
  0.447000000  0.937000000  0.632000000   1.0
  0.447000000  0.937000000  0.732000000   1.0
  0.447000000  0.937000000  0.832000000   1.0
  0.447000000  0.937000000  0.932000000   1.0
  0.547000000  0.037000000  0.032000000   1.0
  0.547000000  0.037000000  0.132000000   1.0
  0.547000000  0.037000000  0.232000000   1.0
  0.547000000  0.037000000  0.332000000   1.0
  0.547000000  0.037000000  0.432000000   1.0
  0.547000000  0.037000000  0.532000000   1.0
  0.547000000  0.037000000  0.632000000   1.0
  0.547000000  0.037000000  0.732000000   1.0
  0.547000000  0.037000000  0.832000000   1.0
  0.547000000  0.037000000  0.932000000   1.0
  0.547000000  0.137000000  0.032000000   1.0
  0.547000000  0.137000000  0.132000000   1.0
  0.547000000  0.137000000  0.232000000   1.0
  0.547000000  0.137000000  0.332000000   1.0
  0.547000000  0.137000000  0.432000000   1.0
  0.547000000  0.137000000  0.532000000   1.0
  0.547000000  0.137000000  0.632000000   1.0
  0.547000000  0.137000000  0.732000000   1.0
  0.547000000  0.137000000  0.832000000   1.0
  0.547000000  0.137000000  0.932000000   1.0
  0.547000000  0.237000000  0.032000000   1.0
  0.547000000  0.237000000  0.132000000   1.0
  0.547000000  0.237000000  0.232000000   1.0
  0.547000000  0.237000000  0.332000000   1.0
  0.547000000  0.237000000  0.432000000   1.0
  0.547000000  0.237000000  0.532000000   1.0
  0.547000000  0.237000000  0.632000000   1.0
  0.547000000  0.237000000  0.732000000   1.0
  0.547000000  0.237000000  0.832000000   1.0
  0.547000000  0.237000000  0.932000000   1.0
  0.547000000  0.337000000  0.032000000   1.0
  0.547000000  0.337000000  0.132000000   1.0
  0.547000000  0.337000000  0.232000000   1.0
  0.547000000  0.337000000  0.332000000   1.0
  0.547000000  0.337000000  0.432000000   1.0
  0.547000000  0.337000000  0.532000000   1.0
  0.547000000  0.337000000  0.632000000   1.0
  0.547000000  0.337000000  0.732000000   1.0
  0.547000000  0.337000000  0.832000000   1.0
  0.547000000  0.337000000  0.932000000   1.0
  0.547000000  0.437000000  0.032000000   1.0
  0.547000000  0.437000000  0.132000000   1.0
  0.547000000  0.437000000  0.232000000   1.0
  0.547000000  0.437000000  0.332000000   1.0
  0.547000000  0.437000000  0.432000000   1.0
  0.547000000  0.437000000  0.532000000   1.0
  0.547000000  0.437000000  0.632000000   1.0
  0.547000000  0.437000000  0.732000000   1.0
  0.547000000  0.437000000  0.832000000   1.0
  0.547000000  0.437000000  0.932000000   1.0
  0.547000000  0.537000000  0.032000000   1.0
  0.547000000  0.537000000  0.132000000   1.0
  0.547000000  0.537000000  0.232000000   1.0
  0.547000000  0.537000000  0.332000000   1.0
  0.547000000  0.537000000  0.432000000   1.0
  0.547000000  0.537000000  0.532000000   1.0
  0.547000000  0.537000000  0.632000000   1.0
  0.547000000  0.537000000  0.732000000   1.0
  0.547000000  0.537000000  0.832000000   1.0
  0.547000000  0.537000000  0.932000000   1.0
  0.547000000  0.637000000  0.032000000   1.0
  0.547000000  0.637000000  0.132000000   1.0
  0.547000000  0.637000000  0.232000000   1.0
  0.547000000  0.637000000  0.332000000   1.0
  0.547000000  0.637000000  0.432000000   1.0
  0.547000000  0.637000000  0.532000000   1.0
  0.547000000  0.637000000  0.632000000   1.0
  0.547000000  0.637000000  0.732000000   1.0
  0.547000000  0.637000000  0.832000000   1.0
  0.547000000  0.637000000  0.932000000   1.0
  0.547000000  0.737000000  0.032000000   1.0
  0.547000000  0.737000000  0.132000000   1.0
  0.547000000  0.737000000  0.232000000   1.0
  0.547000000  0.737000000  0.332000000   1.0
  0.547000000  0.737000000  0.432000000   1.0
  0.547000000  0.737000000  0.532000000   1.0
  0.547000000  0.737000000  0.632000000   1.0
  0.547000000  0.737000000  0.732000000   1.0
  0.547000000  0.737000000  0.832000000   1.0
  0.547000000  0.737000000  0.932000000   1.0
  0.547000000  0.837000000  0.032000000   1.0
  0.547000000  0.837000000  0.132000000   1.0
  0.547000000  0.837000000  0.232000000   1.0
  0.547000000  0.837000000  0.332000000   1.0
  0.547000000  0.837000000  0.432000000   1.0
  0.547000000  0.837000000  0.532000000   1.0
  0.547000000  0.837000000  0.632000000   1.0
  0.547000000  0.837000000  0.732000000   1.0
  0.547000000  0.837000000  0.832000000   1.0
  0.547000000  0.837000000  0.932000000   1.0
  0.547000000  0.937000000  0.032000000   1.0
  0.547000000  0.937000000  0.132000000   1.0
  0.547000000  0.937000000  0.232000000   1.0
  0.547000000  0.937000000  0.332000000   1.0
  0.547000000  0.937000000  0.432000000   1.0
  0.547000000  0.937000000  0.532000000   1.0
  0.547000000  0.937000000  0.632000000   1.0
  0.547000000  0.937000000  0.732000000   1.0
  0.547000000  0.937000000  0.832000000   1.0
  0.547000000  0.937000000  0.932000000   1.0
  0.647000000  0.037000000  0.032000000   1.0
  0.647000000  0.037000000  0.132000000   1.0
  0.647000000  0.037000000  0.232000000   1.0
  0.647000000  0.037000000  0.332000000   1.0
  0.647000000  0.037000000  0.432000000   1.0
  0.647000000  0.037000000  0.532000000   1.0
  0.647000000  0.037000000  0.632000000   1.0
  0.647000000  0.037000000  0.732000000   1.0
  0.647000000  0.037000000  0.832000000   1.0
  0.647000000  0.037000000  0.932000000   1.0
  0.647000000  0.137000000  0.032000000   1.0
  0.647000000  0.137000000  0.132000000   1.0
  0.647000000  0.137000000  0.232000000   1.0
  0.647000000  0.137000000  0.332000000   1.0
  0.647000000  0.137000000  0.432000000   1.0
  0.647000000  0.137000000  0.532000000   1.0
  0.647000000  0.137000000  0.632000000   1.0
  0.647000000  0.137000000  0.732000000   1.0
  0.647000000  0.137000000  0.832000000   1.0
  0.647000000  0.137000000  0.932000000   1.0
  0.647000000  0.237000000  0.032000000   1.0
  0.647000000  0.237000000  0.132000000   1.0
  0.647000000  0.237000000  0.232000000   1.0
  0.647000000  0.237000000  0.332000000   1.0
  0.647000000  0.237000000  0.432000000   1.0
  0.647000000  0.237000000  0.532000000   1.0
  0.647000000  0.237000000  0.632000000   1.0
  0.647000000  0.237000000  0.732000000   1.0
  0.647000000  0.237000000  0.832000000   1.0
  0.647000000  0.237000000  0.932000000   1.0
  0.647000000  0.337000000  0.032000000   1.0
  0.647000000  0.337000000  0.132000000   1.0
  0.647000000  0.337000000  0.232000000   1.0
  0.647000000  0.337000000  0.332000000   1.0
  0.647000000  0.337000000  0.432000000   1.0
  0.647000000  0.337000000  0.532000000   1.0