&control
   prefix = 'Si'
   pseudo_dir = '../../pseudos'
   calculation = 'bands'
/
&system
   ecutwfc = 140.0
   ibrav = 0
   nat = 2
   ntyp = 1
   celldm(1) = 1.0
/
&electrons
   electron_maxstep = 100
   conv_thr = 1e-10
   mixing_mode = 'plain'
   mixing_beta = 0.7
   mixing_ndim = 8
   diagonalization = 'david'
   diago_david_ndim = 4
   diago_full_acc = .true.
/
CELL_PARAMETERS alat
   0.0 5.1452763 5.1452763
   5.1452763 0.0 5.1452763
   5.1452763 5.1452763 0.0
ATOMIC_SPECIES 
   Si 28.0855 'Si.upf'
ATOMIC_POSITIONS angstrom
   Si 0.0 0.0 0.0
   Si 1.3609255925     4.0827767775     4.0827767775
K_POINTS crystal
   216
   0.08433333333333333 0.08333333333333333 0.08333333333333333 1.0
   0.08433333333333333 0.08333333333333333 0.25 1.0
   0.08433333333333333 0.08333333333333333 0.4166666666666667 1.0
   0.08433333333333333 0.08333333333333333 0.5833333333333334 1.0
   0.08433333333333333 0.08333333333333333 0.75 1.0
   0.08433333333333333 0.08333333333333333 0.9166666666666666 1.0
   0.08433333333333333 0.25 0.08333333333333333 1.0
   0.08433333333333333 0.25 0.25 1.0
   0.08433333333333333 0.25 0.4166666666666667 1.0
   0.08433333333333333 0.25 0.5833333333333334 1.0
   0.08433333333333333 0.25 0.75 1.0
   0.08433333333333333 0.25 0.9166666666666666 1.0
   0.08433333333333333 0.4166666666666667 0.08333333333333333 1.0
   0.08433333333333333 0.4166666666666667 0.25 1.0
   0.08433333333333333 0.4166666666666667 0.4166666666666667 1.0
   0.08433333333333333 0.4166666666666667 0.5833333333333334 1.0
   0.08433333333333333 0.4166666666666667 0.75 1.0
   0.08433333333333333 0.4166666666666667 0.9166666666666666 1.0
   0.08433333333333333 0.5833333333333334 0.08333333333333333 1.0
   0.08433333333333333 0.5833333333333334 0.25 1.0
   0.08433333333333333 0.5833333333333334 0.4166666666666667 1.0
   0.08433333333333333 0.5833333333333334 0.5833333333333334 1.0
   0.08433333333333333 0.5833333333333334 0.75 1.0
   0.08433333333333333 0.5833333333333334 0.9166666666666666 1.0
   0.08433333333333333 0.75 0.08333333333333333 1.0
   0.08433333333333333 0.75 0.25 1.0
   0.08433333333333333 0.75 0.4166666666666667 1.0
   0.08433333333333333 0.75 0.5833333333333334 1.0
   0.08433333333333333 0.75 0.75 1.0
   0.08433333333333333 0.75 0.9166666666666666 1.0
   0.08433333333333333 0.9166666666666666 0.08333333333333333 1.0
   0.08433333333333333 0.9166666666666666 0.25 1.0
   0.08433333333333333 0.9166666666666666 0.4166666666666667 1.0
   0.08433333333333333 0.9166666666666666 0.5833333333333334 1.0
   0.08433333333333333 0.9166666666666666 0.75 1.0
   0.08433333333333333 0.9166666666666666 0.9166666666666666 1.0
   0.251 0.08333333333333333 0.08333333333333333 1.0
   0.251 0.08333333333333333 0.25 1.0
   0.251 0.08333333333333333 0.4166666666666667 1.0
   0.251 0.08333333333333333 0.5833333333333334 1.0
   0.251 0.08333333333333333 0.75 1.0
   0.251 0.08333333333333333 0.9166666666666666 1.0
   0.251 0.25 0.08333333333333333 1.0
   0.251 0.25 0.25 1.0
   0.251 0.25 0.4166666666666667 1.0
   0.251 0.25 0.5833333333333334 1.0
   0.251 0.25 0.75 1.0
   0.251 0.25 0.9166666666666666 1.0
   0.251 0.4166666666666667 0.08333333333333333 1.0
   0.251 0.4166666666666667 0.25 1.0
   0.251 0.4166666666666667 0.4166666666666667 1.0
   0.251 0.4166666666666667 0.5833333333333334 1.0
   0.251 0.4166666666666667 0.75 1.0
   0.251 0.4166666666666667 0.9166666666666666 1.0
   0.251 0.5833333333333334 0.08333333333333333 1.0
   0.251 0.5833333333333334 0.25 1.0
   0.251 0.5833333333333334 0.4166666666666667 1.0
   0.251 0.5833333333333334 0.5833333333333334 1.0
   0.251 0.5833333333333334 0.75 1.0
   0.251 0.5833333333333334 0.9166666666666666 1.0
   0.251 0.75 0.08333333333333333 1.0
   0.251 0.75 0.25 1.0
   0.251 0.75 0.4166666666666667 1.0
   0.251 0.75 0.5833333333333334 1.0
   0.251 0.75 0.75 1.0
   0.251 0.75 0.9166666666666666 1.0
   0.251 0.9166666666666666 0.08333333333333333 1.0
   0.251 0.9166666666666666 0.25 1.0
   0.251 0.9166666666666666 0.4166666666666667 1.0
   0.251 0.9166666666666666 0.5833333333333334 1.0
   0.251 0.9166666666666666 0.75 1.0
   0.251 0.9166666666666666 0.9166666666666666 1.0
   0.4176666666666667 0.08333333333333333 0.08333333333333333 1.0
   0.4176666666666667 0.08333333333333333 0.25 1.0
   0.4176666666666667 0.08333333333333333 0.4166666666666667 1.0
   0.4176666666666667 0.08333333333333333 0.5833333333333334 1.0
   0.4176666666666667 0.08333333333333333 0.75 1.0
   0.4176666666666667 0.08333333333333333 0.9166666666666666 1.0
   0.4176666666666667 0.25 0.08333333333333333 1.0
   0.4176666666666667 0.25 0.25 1.0
   0.4176666666666667 0.25 0.4166666666666667 1.0
   0.4176666666666667 0.25 0.5833333333333334 1.0
   0.4176666666666667 0.25 0.75 1.0
   0.4176666666666667 0.25 0.9166666666666666 1.0
   0.4176666666666667 0.4166666666666667 0.08333333333333333 1.0
   0.4176666666666667 0.4166666666666667 0.25 1.0
   0.4176666666666667 0.4166666666666667 0.4166666666666667 1.0
   0.4176666666666667 0.4166666666666667 0.5833333333333334 1.0
   0.4176666666666667 0.4166666666666667 0.75 1.0
   0.4176666666666667 0.4166666666666667 0.9166666666666666 1.0
   0.4176666666666667 0.5833333333333334 0.08333333333333333 1.0
   0.4176666666666667 0.5833333333333334 0.25 1.0
   0.4176666666666667 0.5833333333333334 0.4166666666666667 1.0
   0.4176666666666667 0.5833333333333334 0.5833333333333334 1.0
   0.4176666666666667 0.5833333333333334 0.75 1.0
   0.4176666666666667 0.5833333333333334 0.9166666666666666 1.0
   0.4176666666666667 0.75 0.08333333333333333 1.0
   0.4176666666666667 0.75 0.25 1.0
   0.4176666666666667 0.75 0.4166666666666667 1.0
   0.4176666666666667 0.75 0.5833333333333334 1.0
   0.4176666666666667 0.75 0.75 1.0
   0.4176666666666667 0.75 0.9166666666666666 1.0
   0.4176666666666667 0.9166666666666666 0.08333333333333333 1.0
   0.4176666666666667 0.9166666666666666 0.25 1.0
   0.4176666666666667 0.9166666666666666 0.4166666666666667 1.0
   0.4176666666666667 0.9166666666666666 0.5833333333333334 1.0
   0.4176666666666667 0.9166666666666666 0.75 1.0
   0.4176666666666667 0.9166666666666666 0.9166666666666666 1.0
   0.5843333333333334 0.08333333333333333 0.08333333333333333 1.0
   0.5843333333333334 0.08333333333333333 0.25 1.0
   0.5843333333333334 0.08333333333333333 0.4166666666666667 1.0
   0.5843333333333334 0.08333333333333333 0.5833333333333334 1.0
   0.5843333333333334 0.08333333333333333 0.75 1.0
   0.5843333333333334 0.08333333333333333 0.9166666666666666 1.0
   0.5843333333333334 0.25 0.08333333333333333 1.0
   0.5843333333333334 0.25 0.25 1.0
   0.5843333333333334 0.25 0.4166666666666667 1.0
   0.5843333333333334 0.25 0.5833333333333334 1.0
   0.5843333333333334 0.25 0.75 1.0
   0.5843333333333334 0.25 0.9166666666666666 1.0
   0.5843333333333334 0.4166666666666667 0.08333333333333333 1.0
   0.5843333333333334 0.4166666666666667 0.25 1.0
   0.5843333333333334 0.4166666666666667 0.4166666666666667 1.0
   0.5843333333333334 0.4166666666666667 0.5833333333333334 1.0
   0.5843333333333334 0.4166666666666667 0.75 1.0
   0.5843333333333334 0.4166666666666667 0.9166666666666666 1.0
   0.5843333333333334 0.5833333333333334 0.08333333333333333 1.0
   0.5843333333333334 0.5833333333333334 0.25 1.0
   0.5843333333333334 0.5833333333333334 0.4166666666666667 1.0
   0.5843333333333334 0.5833333333333334 0.5833333333333334 1.0
   0.5843333333333334 0.5833333333333334 0.75 1.0
   0.5843333333333334 0.5833333333333334 0.9166666666666666 1.0
   0.5843333333333334 0.75 0.08333333333333333 1.0
   0.5843333333333334 0.75 0.25 1.0
   0.5843333333333334 0.75 0.4166666666666667 1.0
   0.5843333333333334 0.75 0.5833333333333334 1.0
   0.5843333333333334 0.75 0.75 1.0
   0.5843333333333334 0.75 0.9166666666666666 1.0
   0.5843333333333334 0.9166666666666666 0.08333333333333333 1.0
   0.5843333333333334 0.9166666666666666 0.25 1.0
   0.5843333333333334 0.9166666666666666 0.4166666666666667 1.0
   0.5843333333333334 0.9166666666666666 0.5833333333333334 1.0
   0.5843333333333334 0.9166666666666666 0.75 1.0
   0.5843333333333334 0.9166666666666666 0.9166666666666666 1.0
   0.751 0.08333333333333333 0.08333333333333333 1.0
   0.751 0.08333333333333333 0.25 1.0
   0.751 0.08333333333333333 0.4166666666666667 1.0
   0.751 0.08333333333333333 0.5833333333333334 1.0
   0.751 0.08333333333333333 0.75 1.0
   0.751 0.08333333333333333 0.9166666666666666 1.0
   0.751 0.25 0.08333333333333333 1.0
   0.751 0.25 0.25 1.0
   0.751 0.25 0.4166666666666667 1.0
   0.751 0.25 0.5833333333333334 1.0
   0.751 0.25 0.75 1.0
   0.751 0.25 0.9166666666666666 1.0
   0.751 0.4166666666666667 0.08333333333333333 1.0
   0.751 0.4166666666666667 0.25 1.0
   0.751 0.4166666666666667 0.4166666666666667 1.0
   0.751 0.4166666666666667 0.5833333333333334 1.0
   0.751 0.4166666666666667 0.75 1.0
   0.751 0.4166666666666667 0.9166666666666666 1.0
   0.751 0.5833333333333334 0.08333333333333333 1.0
   0.751 0.5833333333333334 0.25 1.0
   0.751 0.5833333333333334 0.4166666666666667 1.0
   0.751 0.5833333333333334 0.5833333333333334 1.0
   0.751 0.5833333333333334 0.75 1.0
   0.751 0.5833333333333334 0.9166666666666666 1.0
   0.751 0.75 0.08333333333333333 1.0
   0.751 0.75 0.25 1.0
   0.751 0.75 0.4166666666666667 1.0
   0.751 0.75 0.5833333333333334 1.0
   0.751 0.75 0.75 1.0
   0.751 0.75 0.9166666666666666 1.0
   0.751 0.9166666666666666 0.08333333333333333 1.0
   0.751 0.9166666666666666 0.25 1.0
   0.751 0.9166666666666666 0.4166666666666667 1.0
   0.751 0.9166666666666666 0.5833333333333334 1.0
   0.751 0.9166666666666666 0.75 1.0
   0.751 0.9166666666666666 0.9166666666666666 1.0
   0.9176666666666666 0.08333333333333333 0.08333333333333333 1.0
   0.9176666666666666 0.08333333333333333 0.25 1.0
   0.9176666666666666 0.08333333333333333 0.4166666666666667 1.0
   0.9176666666666666 0.08333333333333333 0.5833333333333334 1.0
   0.9176666666666666 0.08333333333333333 0.75 1.0
   0.9176666666666666 0.08333333333333333 0.9166666666666666 1.0
   0.9176666666666666 0.25 0.08333333333333333 1.0
   0.9176666666666666 0.25 0.25 1.0
   0.9176666666666666 0.25 0.4166666666666667 1.0
   0.9176666666666666 0.25 0.5833333333333334 1.0
   0.9176666666666666 0.25 0.75 1.0
   0.9176666666666666 0.25 0.9166666666666666 1.0
   0.9176666666666666 0.4166666666666667 0.08333333333333333 1.0
   0.9176666666666666 0.4166666666666667 0.25 1.0
   0.9176666666666666 0.4166666666666667 0.4166666666666667 1.0
   0.9176666666666666 0.4166666666666667 0.5833333333333334 1.0
   0.9176666666666666 0.4166666666666667 0.75 1.0
   0.9176666666666666 0.4166666666666667 0.9166666666666666 1.0
   0.9176666666666666 0.5833333333333334 0.08333333333333333 1.0
   0.9176666666666666 0.5833333333333334 0.25 1.0
   0.9176666666666666 0.5833333333333334 0.4166666666666667 1.0
   0.9176666666666666 0.5833333333333334 0.5833333333333334 1.0
   0.9176666666666666 0.5833333333333334 0.75 1.0
   0.9176666666666666 0.5833333333333334 0.9166666666666666 1.0
   0.9176666666666666 0.75 0.08333333333333333 1.0
   0.9176666666666666 0.75 0.25 1.0
   0.9176666666666666 0.75 0.4166666666666667 1.0
   0.9176666666666666 0.75 0.5833333333333334 1.0
   0.9176666666666666 0.75 0.75 1.0
   0.9176666666666666 0.75 0.9166666666666666 1.0
   0.9176666666666666 0.9166666666666666 0.08333333333333333 1.0
   0.9176666666666666 0.9166666666666666 0.25 1.0
   0.9176666666666666 0.9166666666666666 0.4166666666666667 1.0
   0.9176666666666666 0.9166666666666666 0.5833333333333334 1.0
   0.9176666666666666 0.9166666666666666 0.75 1.0
   0.9176666666666666 0.9166666666666666 0.9166666666666666 1.0
