&CONTROL
   prefix = 'Zn2O2'
   calculation = 'bands'
   verbosity = 'high'
   restart_mode = 'from_scratch'
   wf_collect = .false.
   tstress = .false.
   tprnfor = .false.
   outdir = '.'
   wfcdir = '.'
   pseudo_dir = '../../../../pseudo/semicore/ld1'
/
&SYSTEM
   ibrav = 0
   a = 1.0
   nat = 4
   ntyp = 2
   nbnd = 26
   ecutwfc = 400.0
   nr1 = 80
   nr2 = 80
   nr3 = 128
/
&ELECTRONS
   electron_maxstep = 100
   conv_thr = 1.0d-10
   mixing_mode = 'plain'
   mixing_beta = 0.7
   mixing_ndim = 8
   diagonalization = 'david'
   diago_david_ndim = 4
   diago_full_acc = .true.
/
CELL_PARAMETERS alat
   3.250000000   0.000000000   0.000000000
  -1.625000000   2.814582562   0.000000000
   0.000000000   0.000000000   5.200000000
ATOMIC_SPECIES
  Zn  65.380  Zn.pw-spn-nc.UPF
   O  15.999  O.pw-n-nc.UPF
ATOMIC_POSITIONS crystal
Zn       0.666666667   0.333333333   0.000000000
Zn       0.333333333   0.666666667   0.500000000
O        0.666666667   0.333333333   0.618000000
O        0.333333333   0.666666667   0.118000000
K_POINTS crystal
75
0.500000 0.000000 0.333333 0.026667
0.500000 0.000000 0.314815 0.026667
0.500000 0.000000 0.296296 0.026667
0.500000 0.000000 0.277778 0.026667
0.500000 0.000000 0.259259 0.026667
0.500000 0.000000 0.240741 0.026667
0.500000 0.000000 0.222222 0.026667
0.500000 0.000000 0.203704 0.026667
0.500000 0.000000 0.185185 0.026667
0.500000 0.000000 0.166667 0.026667
0.500000 0.000000 0.148148 0.026667
0.500000 0.000000 0.129630 0.026667
0.500000 0.000000 0.111111 0.026667
0.500000 0.000000 0.092593 0.026667
0.500000 0.000000 0.074074 0.026667
0.500000 0.000000 0.055556 0.026667
0.500000 0.000000 0.037037 0.026667
0.500000 0.000000 0.018519 0.026667
0.500000 0.000000 0.000000 0.026667
0.494253 0.011494 0.000000 0.026667
0.488506 0.022989 0.000000 0.026667
0.482759 0.034483 0.000000 0.026667
0.477011 0.045977 0.000000 0.026667
0.471264 0.057471 0.000000 0.026667
0.465517 0.068966 0.000000 0.026667
0.459770 0.080460 0.000000 0.026667
0.454023 0.091954 0.000000 0.026667
0.448276 0.103448 0.000000 0.026667
0.442529 0.114943 0.000000 0.026667
0.436782 0.126437 0.000000 0.026667
0.431034 0.137931 0.000000 0.026667
0.425287 0.149425 0.000000 0.026667
0.419540 0.160920 0.000000 0.026667
0.413793 0.172414 0.000000 0.026667
0.408046 0.183908 0.000000 0.026667
0.402299 0.195402 0.000000 0.026667
0.396552 0.206897 0.000000 0.026667
0.390805 0.218391 0.000000 0.026667
0.385057 0.229885 0.000000 0.026667
0.379310 0.241379 0.000000 0.026667
0.373563 0.252874 0.000000 0.026667
0.367816 0.264368 0.000000 0.026667
0.362069 0.275862 0.000000 0.026667
0.356322 0.287356 0.000000 0.026667
0.350575 0.298851 0.000000 0.026667
0.344828 0.310345 0.000000 0.026667
0.339080 0.321839 0.000000 0.026667
0.333333 0.333333 0.000000 0.026667
0.333333 0.333333 0.018519 0.026667
0.333333 0.333333 0.037037 0.026667
0.333333 0.333333 0.055556 0.026667
0.333333 0.333333 0.074074 0.026667
0.333333 0.333333 0.092593 0.026667
0.333333 0.333333 0.111111 0.026667
0.333333 0.333333 0.129630 0.026667
0.333333 0.333333 0.148148 0.026667
0.333333 0.333333 0.166667 0.026667
0.333333 0.333333 0.185185 0.026667
0.333333 0.333333 0.203704 0.026667
0.333333 0.333333 0.222222 0.026667
0.333333 0.333333 0.240741 0.026667
0.333333 0.333333 0.259259 0.026667
0.333333 0.333333 0.277778 0.026667
0.333333 0.333333 0.296296 0.026667
0.333333 0.333333 0.314815 0.026667
0.333333 0.333333 0.333333 0.026667
0.333333 0.333333 0.351852 0.026667
0.333333 0.333333 0.370370 0.026667
0.333333 0.333333 0.388889 0.026667
0.333333 0.333333 0.407407 0.026667
0.333333 0.333333 0.425926 0.026667
0.333333 0.333333 0.444444 0.026667
0.333333 0.333333 0.462963 0.026667
0.333333 0.333333 0.481481 0.026667
0.333333 0.333333 0.500000 0.026667
