#wannier.win
num_wann = 22
num_bands = 22
#exclude_bands : 1-12, 35-40
write_xyz = false
bands_plot = T

begin kpoint_path
G 0.000000000 0.000000000 0.00000 K 0.333333333 0.333333333 0.00000
K 0.333333333 0.333333333 0.00000 M 0.000000000 0.500000000 0.00000
M 0.000000000 0.500000000 0.00000 G 0.000000000 0.000000000 0.00000
end kpoint_path

bands_num_points = 100
bands_plot_format = gnuplot

dis_num_iter = 0
num_iter = 0

guiding_centres = T

use_ws_distance = T

begin projections
Mo : l=2
S : l=1
end projections

mp_grid : 12 12 1

spinors = T

begin unit_cell_cart
Ang
 3.168012328     0.000000000     0.000000000
-1.584006164     2.743579155     0.000000000
 0.000000000     0.000000000     16.000000000
end unit_cell_cart

begin atoms_frac
Mo  0.333333333  0.666666667  0.000000000
S   0.666666667  0.333333333 -0.097901996
S   0.666666667  0.333333333  0.097901996
end atoms_frac

begin kpoints
  0.00000000  0.00000000  0.00000000
  0.00000000  0.08333333  0.00000000
  0.00000000  0.16666667  0.00000000
  0.00000000  0.25000000  0.00000000
  0.00000000  0.33333333  0.00000000
  0.00000000  0.41666667  0.00000000
  0.00000000  0.50000000  0.00000000
  0.00000000  0.58333333  0.00000000
  0.00000000  0.66666667  0.00000000
  0.00000000  0.75000000  0.00000000
  0.00000000  0.83333333  0.00000000
  0.00000000  0.91666667  0.00000000
  0.08333333  0.00000000  0.00000000
  0.08333333  0.08333333  0.00000000
  0.08333333  0.16666667  0.00000000
  0.08333333  0.25000000  0.00000000
  0.08333333  0.33333333  0.00000000
  0.08333333  0.41666667  0.00000000
  0.08333333  0.50000000  0.00000000
  0.08333333  0.58333333  0.00000000
  0.08333333  0.66666667  0.00000000
  0.08333333  0.75000000  0.00000000
  0.08333333  0.83333333  0.00000000
  0.08333333  0.91666667  0.00000000
  0.16666667  0.00000000  0.00000000
  0.16666667  0.08333333  0.00000000
  0.16666667  0.16666667  0.00000000
  0.16666667  0.25000000  0.00000000
  0.16666667  0.33333333  0.00000000
  0.16666667  0.41666667  0.00000000
  0.16666667  0.50000000  0.00000000
  0.16666667  0.58333333  0.00000000
  0.16666667  0.66666667  0.00000000
  0.16666667  0.75000000  0.00000000
  0.16666667  0.83333333  0.00000000
  0.16666667  0.91666667  0.00000000
  0.25000000  0.00000000  0.00000000
  0.25000000  0.08333333  0.00000000
  0.25000000  0.16666667  0.00000000
  0.25000000  0.25000000  0.00000000
  0.25000000  0.33333333  0.00000000
  0.25000000  0.41666667  0.00000000
  0.25000000  0.50000000  0.00000000
  0.25000000  0.58333333  0.00000000
  0.25000000  0.66666667  0.00000000
  0.25000000  0.75000000  0.00000000
  0.25000000  0.83333333  0.00000000
  0.25000000  0.91666667  0.00000000
  0.33333333  0.00000000  0.00000000
  0.33333333  0.08333333  0.00000000
  0.33333333  0.16666667  0.00000000
  0.33333333  0.25000000  0.00000000
  0.33333333  0.33333333  0.00000000
  0.33333333  0.41666667  0.00000000
  0.33333333  0.50000000  0.00000000
  0.33333333  0.58333333  0.00000000
  0.33333333  0.66666667  0.00000000
  0.33333333  0.75000000  0.00000000
  0.33333333  0.83333333  0.00000000
  0.33333333  0.91666667  0.00000000
  0.41666667  0.00000000  0.00000000
  0.41666667  0.08333333  0.00000000
  0.41666667  0.16666667  0.00000000
  0.41666667  0.25000000  0.00000000
  0.41666667  0.33333333  0.00000000
  0.41666667  0.41666667  0.00000000
  0.41666667  0.50000000  0.00000000
  0.41666667  0.58333333  0.00000000
  0.41666667  0.66666667  0.00000000
  0.41666667  0.75000000  0.00000000
  0.41666667  0.83333333  0.00000000
  0.41666667  0.91666667  0.00000000
  0.50000000  0.00000000  0.00000000
  0.50000000  0.08333333  0.00000000
  0.50000000  0.16666667  0.00000000
  0.50000000  0.25000000  0.00000000
  0.50000000  0.33333333  0.00000000
  0.50000000  0.41666667  0.00000000
  0.50000000  0.50000000  0.00000000
  0.50000000  0.58333333  0.00000000
  0.50000000  0.66666667  0.00000000
  0.50000000  0.75000000  0.00000000
  0.50000000  0.83333333  0.00000000
  0.50000000  0.91666667  0.00000000
  0.58333333  0.00000000  0.00000000
  0.58333333  0.08333333  0.00000000
  0.58333333  0.16666667  0.00000000
  0.58333333  0.25000000  0.00000000
  0.58333333  0.33333333  0.00000000
  0.58333333  0.41666667  0.00000000
  0.58333333  0.50000000  0.00000000
  0.58333333  0.58333333  0.00000000
  0.58333333  0.66666667  0.00000000
  0.58333333  0.75000000  0.00000000
  0.58333333  0.83333333  0.00000000
  0.58333333  0.91666667  0.00000000
  0.66666667  0.00000000  0.00000000
  0.66666667  0.08333333  0.00000000
  0.66666667  0.16666667  0.00000000
  0.66666667  0.25000000  0.00000000
  0.66666667  0.33333333  0.00000000
  0.66666667  0.41666667  0.00000000
  0.66666667  0.50000000  0.00000000
  0.66666667  0.58333333  0.00000000
  0.66666667  0.66666667  0.00000000
  0.66666667  0.75000000  0.00000000
  0.66666667  0.83333333  0.00000000
  0.66666667  0.91666667  0.00000000
  0.75000000  0.00000000  0.00000000
  0.75000000  0.08333333  0.00000000
  0.75000000  0.16666667  0.00000000
  0.75000000  0.25000000  0.00000000
  0.75000000  0.33333333  0.00000000
  0.75000000  0.41666667  0.00000000
  0.75000000  0.50000000  0.00000000
  0.75000000  0.58333333  0.00000000
  0.75000000  0.66666667  0.00000000
  0.75000000  0.75000000  0.00000000
  0.75000000  0.83333333  0.00000000
  0.75000000  0.91666667  0.00000000
  0.83333333  0.00000000  0.00000000
  0.83333333  0.08333333  0.00000000
  0.83333333  0.16666667  0.00000000
  0.83333333  0.25000000  0.00000000
  0.83333333  0.33333333  0.00000000
  0.83333333  0.41666667  0.00000000
  0.83333333  0.50000000  0.00000000
  0.83333333  0.58333333  0.00000000
  0.83333333  0.66666667  0.00000000
  0.83333333  0.75000000  0.00000000
  0.83333333  0.83333333  0.00000000
  0.83333333  0.91666667  0.00000000
  0.91666667  0.00000000  0.00000000
  0.91666667  0.08333333  0.00000000
  0.91666667  0.16666667  0.00000000
  0.91666667  0.25000000  0.00000000
  0.91666667  0.33333333  0.00000000
  0.91666667  0.41666667  0.00000000
  0.91666667  0.50000000  0.00000000
  0.91666667  0.58333333  0.00000000
  0.91666667  0.66666667  0.00000000
  0.91666667  0.75000000  0.00000000
  0.91666667  0.83333333  0.00000000
  0.91666667  0.91666667  0.00000000
end kpoints
