&CONTROL
prefix='MoS2',
calculation='bands',
disk_io = 'low',
pseudo_dir='../../../pseudo/oncvpsp/',
outdir = './',
verbosity='high',
restart_mode='from_scratch',
wf_collect=.TRUE.,    
 /
&SYSTEM
ibrav = 0,
nat = 3,
ntyp = 2,
nbnd = 40,
ecutwfc = 40.0,
nosym= .FALSE.,
occupations= 'fixed',
degauss=0.D0
smearing= 'gaussian',
nspin=4
noncolin=.TRUE.
constrained_magnetization='none'
lspinorb=.TRUE.
assume_isolated="2D",
 /
&ELECTRONS
startingwfc='atomic+random',
diago_full_acc = .false.,
electron_maxstep=200,
conv_thr=1.0D-10,
mixing_mode='local-TF',
mixing_beta=0.7D0,
diagonalization='david',
 /
CELL_PARAMETERS angstrom
 3.168012328     0.000000000     0.000000000
-1.584006164     2.743579155     0.000000000
 0.000000000     0.000000000     16.000000000
ATOMIC_SPECIES
 Mo  1.0    Mo_FR.UPF
 S   1.0    S_FR.UPF
ATOMIC_POSITIONS crystal
 Mo  0.333333333  0.666666667  0.000000000  1  1  1
 S   0.666666667  0.333333333 -0.097901996  1  1  1
 S   0.666666667  0.333333333  0.097901996  1  1  1
K_POINTS crystal
144
  0.00000000  0.00000000  0.00000000  6.944444e-03
  0.00000000  0.08333333  0.00000000  6.944444e-03
  0.00000000  0.16666667  0.00000000  6.944444e-03
  0.00000000  0.25000000  0.00000000  6.944444e-03
  0.00000000  0.33333333  0.00000000  6.944444e-03
  0.00000000  0.41666667  0.00000000  6.944444e-03
  0.00000000  0.50000000  0.00000000  6.944444e-03
  0.00000000  0.58333333  0.00000000  6.944444e-03
  0.00000000  0.66666667  0.00000000  6.944444e-03
  0.00000000  0.75000000  0.00000000  6.944444e-03
  0.00000000  0.83333333  0.00000000  6.944444e-03
  0.00000000  0.91666667  0.00000000  6.944444e-03
  0.08333333  0.00000000  0.00000000  6.944444e-03
  0.08333333  0.08333333  0.00000000  6.944444e-03
  0.08333333  0.16666667  0.00000000  6.944444e-03
  0.08333333  0.25000000  0.00000000  6.944444e-03
  0.08333333  0.33333333  0.00000000  6.944444e-03
  0.08333333  0.41666667  0.00000000  6.944444e-03
  0.08333333  0.50000000  0.00000000  6.944444e-03
  0.08333333  0.58333333  0.00000000  6.944444e-03
  0.08333333  0.66666667  0.00000000  6.944444e-03
  0.08333333  0.75000000  0.00000000  6.944444e-03
  0.08333333  0.83333333  0.00000000  6.944444e-03
  0.08333333  0.91666667  0.00000000  6.944444e-03
  0.16666667  0.00000000  0.00000000  6.944444e-03
  0.16666667  0.08333333  0.00000000  6.944444e-03
  0.16666667  0.16666667  0.00000000  6.944444e-03
  0.16666667  0.25000000  0.00000000  6.944444e-03
  0.16666667  0.33333333  0.00000000  6.944444e-03
  0.16666667  0.41666667  0.00000000  6.944444e-03
  0.16666667  0.50000000  0.00000000  6.944444e-03
  0.16666667  0.58333333  0.00000000  6.944444e-03
  0.16666667  0.66666667  0.00000000  6.944444e-03
  0.16666667  0.75000000  0.00000000  6.944444e-03
  0.16666667  0.83333333  0.00000000  6.944444e-03
  0.16666667  0.91666667  0.00000000  6.944444e-03
  0.25000000  0.00000000  0.00000000  6.944444e-03
  0.25000000  0.08333333  0.00000000  6.944444e-03
  0.25000000  0.16666667  0.00000000  6.944444e-03
  0.25000000  0.25000000  0.00000000  6.944444e-03
  0.25000000  0.33333333  0.00000000  6.944444e-03
  0.25000000  0.41666667  0.00000000  6.944444e-03
  0.25000000  0.50000000  0.00000000  6.944444e-03
  0.25000000  0.58333333  0.00000000  6.944444e-03
  0.25000000  0.66666667  0.00000000  6.944444e-03
  0.25000000  0.75000000  0.00000000  6.944444e-03
  0.25000000  0.83333333  0.00000000  6.944444e-03
  0.25000000  0.91666667  0.00000000  6.944444e-03
  0.33333333  0.00000000  0.00000000  6.944444e-03
  0.33333333  0.08333333  0.00000000  6.944444e-03
  0.33333333  0.16666667  0.00000000  6.944444e-03
  0.33333333  0.25000000  0.00000000  6.944444e-03
  0.33333333  0.33333333  0.00000000  6.944444e-03
  0.33333333  0.41666667  0.00000000  6.944444e-03
  0.33333333  0.50000000  0.00000000  6.944444e-03
  0.33333333  0.58333333  0.00000000  6.944444e-03
  0.33333333  0.66666667  0.00000000  6.944444e-03
  0.33333333  0.75000000  0.00000000  6.944444e-03
  0.33333333  0.83333333  0.00000000  6.944444e-03
  0.33333333  0.91666667  0.00000000  6.944444e-03
  0.41666667  0.00000000  0.00000000  6.944444e-03
  0.41666667  0.08333333  0.00000000  6.944444e-03
  0.41666667  0.16666667  0.00000000  6.944444e-03
  0.41666667  0.25000000  0.00000000  6.944444e-03
  0.41666667  0.33333333  0.00000000  6.944444e-03
  0.41666667  0.41666667  0.00000000  6.944444e-03
  0.41666667  0.50000000  0.00000000  6.944444e-03
  0.41666667  0.58333333  0.00000000  6.944444e-03
  0.41666667  0.66666667  0.00000000  6.944444e-03
  0.41666667  0.75000000  0.00000000  6.944444e-03
  0.41666667  0.83333333  0.00000000  6.944444e-03
  0.41666667  0.91666667  0.00000000  6.944444e-03
  0.50000000  0.00000000  0.00000000  6.944444e-03
  0.50000000  0.08333333  0.00000000  6.944444e-03
  0.50000000  0.16666667  0.00000000  6.944444e-03
  0.50000000  0.25000000  0.00000000  6.944444e-03
  0.50000000  0.33333333  0.00000000  6.944444e-03
  0.50000000  0.41666667  0.00000000  6.944444e-03
  0.50000000  0.50000000  0.00000000  6.944444e-03
  0.50000000  0.58333333  0.00000000  6.944444e-03
  0.50000000  0.66666667  0.00000000  6.944444e-03
  0.50000000  0.75000000  0.00000000  6.944444e-03
  0.50000000  0.83333333  0.00000000  6.944444e-03
  0.50000000  0.91666667  0.00000000  6.944444e-03
  0.58333333  0.00000000  0.00000000  6.944444e-03
  0.58333333  0.08333333  0.00000000  6.944444e-03
  0.58333333  0.16666667  0.00000000  6.944444e-03
  0.58333333  0.25000000  0.00000000  6.944444e-03
  0.58333333  0.33333333  0.00000000  6.944444e-03
  0.58333333  0.41666667  0.00000000  6.944444e-03
  0.58333333  0.50000000  0.00000000  6.944444e-03
  0.58333333  0.58333333  0.00000000  6.944444e-03
  0.58333333  0.66666667  0.00000000  6.944444e-03
  0.58333333  0.75000000  0.00000000  6.944444e-03
  0.58333333  0.83333333  0.00000000  6.944444e-03
  0.58333333  0.91666667  0.00000000  6.944444e-03
  0.66666667  0.00000000  0.00000000  6.944444e-03
  0.66666667  0.08333333  0.00000000  6.944444e-03
  0.66666667  0.16666667  0.00000000  6.944444e-03
  0.66666667  0.25000000  0.00000000  6.944444e-03
  0.66666667  0.33333333  0.00000000  6.944444e-03
  0.66666667  0.41666667  0.00000000  6.944444e-03
  0.66666667  0.50000000  0.00000000  6.944444e-03
  0.66666667  0.58333333  0.00000000  6.944444e-03
  0.66666667  0.66666667  0.00000000  6.944444e-03
  0.66666667  0.75000000  0.00000000  6.944444e-03
  0.66666667  0.83333333  0.00000000  6.944444e-03
  0.66666667  0.91666667  0.00000000  6.944444e-03
  0.75000000  0.00000000  0.00000000  6.944444e-03
  0.75000000  0.08333333  0.00000000  6.944444e-03
  0.75000000  0.16666667  0.00000000  6.944444e-03
  0.75000000  0.25000000  0.00000000  6.944444e-03
  0.75000000  0.33333333  0.00000000  6.944444e-03
  0.75000000  0.41666667  0.00000000  6.944444e-03
  0.75000000  0.50000000  0.00000000  6.944444e-03
  0.75000000  0.58333333  0.00000000  6.944444e-03
  0.75000000  0.66666667  0.00000000  6.944444e-03
  0.75000000  0.75000000  0.00000000  6.944444e-03
  0.75000000  0.83333333  0.00000000  6.944444e-03
  0.75000000  0.91666667  0.00000000  6.944444e-03
  0.83333333  0.00000000  0.00000000  6.944444e-03
  0.83333333  0.08333333  0.00000000  6.944444e-03
  0.83333333  0.16666667  0.00000000  6.944444e-03
  0.83333333  0.25000000  0.00000000  6.944444e-03
  0.83333333  0.33333333  0.00000000  6.944444e-03
  0.83333333  0.41666667  0.00000000  6.944444e-03
  0.83333333  0.50000000  0.00000000  6.944444e-03
  0.83333333  0.58333333  0.00000000  6.944444e-03
  0.83333333  0.66666667  0.00000000  6.944444e-03
  0.83333333  0.75000000  0.00000000  6.944444e-03
  0.83333333  0.83333333  0.00000000  6.944444e-03
  0.83333333  0.91666667  0.00000000  6.944444e-03
  0.91666667  0.00000000  0.00000000  6.944444e-03
  0.91666667  0.08333333  0.00000000  6.944444e-03
  0.91666667  0.16666667  0.00000000  6.944444e-03
  0.91666667  0.25000000  0.00000000  6.944444e-03
  0.91666667  0.33333333  0.00000000  6.944444e-03
  0.91666667  0.41666667  0.00000000  6.944444e-03
  0.91666667  0.50000000  0.00000000  6.944444e-03
  0.91666667  0.58333333  0.00000000  6.944444e-03
  0.91666667  0.66666667  0.00000000  6.944444e-03
  0.91666667  0.75000000  0.00000000  6.944444e-03
  0.91666667  0.83333333  0.00000000  6.944444e-03
  0.91666667  0.91666667  0.00000000  6.944444e-03
