&control
calculation = 'bands',
prefix = 'cspbcl3',
verbosity = 'high' ,
pseudo_dir='../pseudopotentials'
outdir = '.'
/
&system
ibrav = 0 ,
nat = 5,
ntyp = 3,
ecutwfc = 20,
noncolin= .TRUE.,
lspinorb= .TRUE.,
starting_magnetization=0.0
nbnd =  60
/
&electrons
/
K_POINTS crystal
   20
  0.000000000  0.000000000  0.000000000   1.0
  0.000000000  0.000000000  0.166666667   6.0
  0.000000000  0.000000000  0.333333333   6.0
  0.000000000  0.000000000  0.500000000   3.0
  0.000000000  0.166666667  0.166666667  12.0
  0.000000000  0.166666667  0.333333333  24.0
  0.000000000  0.166666667  0.500000000  12.0
  0.000000000  0.333333333  0.333333333  12.0
  0.000000000  0.333333333  0.500000000  12.0
  0.000000000  0.500000000  0.500000000   3.0
  0.166666667  0.166666667  0.166666667   8.0
  0.166666667  0.166666667  0.333333333  24.0
  0.166666667  0.166666667  0.500000000  12.0
  0.166666667  0.333333333  0.333333333  24.0
  0.166666667  0.333333333  0.500000000  24.0
  0.166666667  0.500000000  0.500000000   6.0
  0.333333333  0.333333333  0.333333333   8.0
  0.333333333  0.333333333  0.500000000  12.0
  0.333333333  0.500000000  0.500000000   6.0
  0.500000000  0.500000000  0.500000000   1.0
ATOMIC_SPECIES
Cs 1 Cs.upf
Pb 1 Pb.upf
Cl 1 Cl.upf
CELL_PARAMETERS angstrom
   5.599   0.000000000   0.000000000
   0.000000000   5.599   0.000000000
   0.000000000   0.000000000   5.599
ATOMIC_POSITIONS crystal
Cs      0.500000000         0.500000000         0.500000000
Pb      0.000000000         0.000000000         0.000000000
Cl      0.500000000         0.000000000         0.000000000
Cl      0.000000000         0.500000000         0.000000000
Cl      0.000000000         0.000000000         0.500000000
