num_bands         =  12
num_wann          =   8
dis_froz_max      =  12.67

Begin Atoms_Frac
  Si  -0.125000000  -0.125000000  -0.125000000
  Si   0.125000000   0.125000000   0.125000000
End Atoms_Frac
    
Begin Projections     
Si : sp3
End Projections 
    
begin kpoint_path
W 0.750 0.500 0.250  L 0.500 0.000 0.000
L 0.500 0.000 0.000  G 0.000 0.000 0.000
G 0.000 0.000 0.000  X 0.500 0.500 0.000
X 0.500 0.500 0.000  W 0.750 0.500 0.250
W 0.750 0.500 0.250  K 0.750 0.375 0.375
end kpoint_path

Begin Unit_Cell_Cart
Bohr
 0.000000000  5.130600000  5.130600000
 5.130600000  0.000000000  5.130600000
 5.130600000  5.130600000  0.000000000
End Unit_Cell_Cart

mp_grid      = 5 5 5

begin kpoints
  0.000000000  0.000000000  0.000000000  
  0.000000000  0.000000000  0.200000000  
  0.000000000  0.000000000  0.400000000  
  0.000000000  0.000000000  0.600000000  
  0.000000000  0.000000000  0.800000000  
  0.000000000  0.200000000  0.000000000  
  0.000000000  0.200000000  0.200000000  
  0.000000000  0.200000000  0.400000000  
  0.000000000  0.200000000  0.600000000  
  0.000000000  0.200000000  0.800000000  
  0.000000000  0.400000000  0.000000000  
  0.000000000  0.400000000  0.200000000  
  0.000000000  0.400000000  0.400000000  
  0.000000000  0.400000000  0.600000000  
  0.000000000  0.400000000  0.800000000  
  0.000000000  0.600000000  0.000000000  
  0.000000000  0.600000000  0.200000000  
  0.000000000  0.600000000  0.400000000  
  0.000000000  0.600000000  0.600000000  
  0.000000000  0.600000000  0.800000000  
  0.000000000  0.800000000  0.000000000  
  0.000000000  0.800000000  0.200000000  
  0.000000000  0.800000000  0.400000000  
  0.000000000  0.800000000  0.600000000  
  0.000000000  0.800000000  0.800000000  
  0.200000000  0.000000000  0.000000000  
  0.200000000  0.000000000  0.200000000  
  0.200000000  0.000000000  0.400000000  
  0.200000000  0.000000000  0.600000000  
  0.200000000  0.000000000  0.800000000  
  0.200000000  0.200000000  0.000000000  
  0.200000000  0.200000000  0.200000000  
  0.200000000  0.200000000  0.400000000  
  0.200000000  0.200000000  0.600000000  
  0.200000000  0.200000000  0.800000000  
  0.200000000  0.400000000  0.000000000  
  0.200000000  0.400000000  0.200000000  
  0.200000000  0.400000000  0.400000000  
  0.200000000  0.400000000  0.600000000  
  0.200000000  0.400000000  0.800000000  
  0.200000000  0.600000000  0.000000000  
  0.200000000  0.600000000  0.200000000  
  0.200000000  0.600000000  0.400000000  
  0.200000000  0.600000000  0.600000000  
  0.200000000  0.600000000  0.800000000  
  0.200000000  0.800000000  0.000000000  
  0.200000000  0.800000000  0.200000000  
  0.200000000  0.800000000  0.400000000  
  0.200000000  0.800000000  0.600000000  
  0.200000000  0.800000000  0.800000000  
  0.400000000  0.000000000  0.000000000  
  0.400000000  0.000000000  0.200000000  
  0.400000000  0.000000000  0.400000000  
  0.400000000  0.000000000  0.600000000  
  0.400000000  0.000000000  0.800000000  
  0.400000000  0.200000000  0.000000000  
  0.400000000  0.200000000  0.200000000  
  0.400000000  0.200000000  0.400000000  
  0.400000000  0.200000000  0.600000000  
  0.400000000  0.200000000  0.800000000  
  0.400000000  0.400000000  0.000000000  
  0.400000000  0.400000000  0.200000000  
  0.400000000  0.400000000  0.400000000  
  0.400000000  0.400000000  0.600000000  
  0.400000000  0.400000000  0.800000000  
  0.400000000  0.600000000  0.000000000  
  0.400000000  0.600000000  0.200000000  
  0.400000000  0.600000000  0.400000000  
  0.400000000  0.600000000  0.600000000  
  0.400000000  0.600000000  0.800000000  
  0.400000000  0.800000000  0.000000000  
  0.400000000  0.800000000  0.200000000  
  0.400000000  0.800000000  0.400000000  
  0.400000000  0.800000000  0.600000000  
  0.400000000  0.800000000  0.800000000  
  0.600000000  0.000000000  0.000000000  
  0.600000000  0.000000000  0.200000000  
  0.600000000  0.000000000  0.400000000  
  0.600000000  0.000000000  0.600000000  
  0.600000000  0.000000000  0.800000000  
  0.600000000  0.200000000  0.000000000  
  0.600000000  0.200000000  0.200000000  
  0.600000000  0.200000000  0.400000000  
  0.600000000  0.200000000  0.600000000  
  0.600000000  0.200000000  0.800000000  
  0.600000000  0.400000000  0.000000000  
  0.600000000  0.400000000  0.200000000  
  0.600000000  0.400000000  0.400000000  
  0.600000000  0.400000000  0.600000000  
  0.600000000  0.400000000  0.800000000  
  0.600000000  0.600000000  0.000000000  
  0.600000000  0.600000000  0.200000000  
  0.600000000  0.600000000  0.400000000  
  0.600000000  0.600000000  0.600000000  
  0.600000000  0.600000000  0.800000000  
  0.600000000  0.800000000  0.000000000  
  0.600000000  0.800000000  0.200000000  
  0.600000000  0.800000000  0.400000000  
  0.600000000  0.800000000  0.600000000  
  0.600000000  0.800000000  0.800000000  
  0.800000000  0.000000000  0.000000000  
  0.800000000  0.000000000  0.200000000  
  0.800000000  0.000000000  0.400000000  
  0.800000000  0.000000000  0.600000000  
  0.800000000  0.000000000  0.800000000  
  0.800000000  0.200000000  0.000000000  
  0.800000000  0.200000000  0.200000000  
  0.800000000  0.200000000  0.400000000  
  0.800000000  0.200000000  0.600000000  
  0.800000000  0.200000000  0.800000000  
  0.800000000  0.400000000  0.000000000  
  0.800000000  0.400000000  0.200000000  
  0.800000000  0.400000000  0.400000000  
  0.800000000  0.400000000  0.600000000  
  0.800000000  0.400000000  0.800000000  
  0.800000000  0.600000000  0.000000000  
  0.800000000  0.600000000  0.200000000  
  0.800000000  0.600000000  0.400000000  
  0.800000000  0.600000000  0.600000000  
  0.800000000  0.600000000  0.800000000  
  0.800000000  0.800000000  0.000000000  
  0.800000000  0.800000000  0.200000000  
  0.800000000  0.800000000  0.400000000  
  0.800000000  0.800000000  0.600000000  
  0.800000000  0.800000000  0.800000000
End Kpoints

bands_plot = .true.
