&CONTROL
   prefix = 'Zn2O2'
   calculation = 'bands'
   verbosity = 'high'
   restart_mode = 'from_scratch'
   wf_collect = .false.
   tstress = .false.
   tprnfor = .false.
   outdir = '.'
   wfcdir = '.'
   pseudo_dir = '../../../../pseudo/semicore/ld1'
/
&SYSTEM
   ibrav = 0
   a = 1.0
   nat = 4
   ntyp = 2
   nbnd = 26
   ecutwfc = 400.0
   nr1 = 80
   nr2 = 80
   nr3 = 128
/
&ELECTRONS
   electron_maxstep = 100
   conv_thr = 1.0d-10
   mixing_mode = 'plain'
   mixing_beta = 0.7
   mixing_ndim = 8
   diagonalization = 'david'
   diago_david_ndim = 4
   diago_full_acc = .true.
/
CELL_PARAMETERS alat
   3.250000000   0.000000000   0.000000000
  -1.625000000   2.814582562   0.000000000
   0.000000000   0.000000000   5.200000000
ATOMIC_SPECIES
  Zn  65.380  Zn.pw-spn-nc.UPF
   O  15.999  O.pw-n-nc.UPF
ATOMIC_POSITIONS crystal
Zn       0.666666667   0.333333333   0.000000000
Zn       0.333333333   0.666666667   0.500000000
O        0.666666667   0.333333333   0.618000000
O        0.333333333   0.666666667   0.118000000
K_POINTS crystal
72
0.000000 0.000000 0.000000 0.027778
0.010000 0.000000 0.000000 0.027778
0.020000 0.000000 0.000000 0.027778
0.030000 0.000000 0.000000 0.027778
0.040000 0.000000 0.000000 0.027778
0.050000 0.000000 0.000000 0.027778
0.060000 0.000000 0.000000 0.027778
0.070000 0.000000 0.000000 0.027778
0.080000 0.000000 0.000000 0.027778
0.090000 0.000000 0.000000 0.027778
0.100000 0.000000 0.000000 0.027778
0.110000 0.000000 0.000000 0.027778
0.120000 0.000000 0.000000 0.027778
0.130000 0.000000 0.000000 0.027778
0.140000 0.000000 0.000000 0.027778
0.150000 0.000000 0.000000 0.027778
0.160000 0.000000 0.000000 0.027778
0.170000 0.000000 0.000000 0.027778
0.180000 0.000000 0.000000 0.027778
0.190000 0.000000 0.000000 0.027778
0.200000 0.000000 0.000000 0.027778
0.210000 0.000000 0.000000 0.027778
0.220000 0.000000 0.000000 0.027778
0.230000 0.000000 0.000000 0.027778
0.240000 0.000000 0.000000 0.027778
0.250000 0.000000 0.000000 0.027778
0.260000 0.000000 0.000000 0.027778
0.270000 0.000000 0.000000 0.027778
0.280000 0.000000 0.000000 0.027778
0.290000 0.000000 0.000000 0.027778
0.300000 0.000000 0.000000 0.027778
0.310000 0.000000 0.000000 0.027778
0.320000 0.000000 0.000000 0.027778
0.330000 0.000000 0.000000 0.027778
0.340000 0.000000 0.000000 0.027778
0.350000 0.000000 0.000000 0.027778
0.360000 0.000000 0.000000 0.027778
0.370000 0.000000 0.000000 0.027778
0.380000 0.000000 0.000000 0.027778
0.390000 0.000000 0.000000 0.027778
0.400000 0.000000 0.000000 0.027778
0.410000 0.000000 0.000000 0.027778
0.420000 0.000000 0.000000 0.027778
0.430000 0.000000 0.000000 0.027778
0.440000 0.000000 0.000000 0.027778
0.450000 0.000000 0.000000 0.027778
0.460000 0.000000 0.000000 0.027778
0.470000 0.000000 0.000000 0.027778
0.480000 0.000000 0.000000 0.027778
0.490000 0.000000 0.000000 0.027778
0.500000 0.000000 0.000000 0.027778
0.494253 0.011494 0.000000 0.027778
0.488506 0.022989 0.000000 0.027778
0.482759 0.034483 0.000000 0.027778
0.477011 0.045977 0.000000 0.027778
0.471264 0.057471 0.000000 0.027778
0.465517 0.068966 0.000000 0.027778
0.459770 0.080460 0.000000 0.027778
0.454023 0.091954 0.000000 0.027778
0.448276 0.103448 0.000000 0.027778
0.442529 0.114943 0.000000 0.027778
0.436782 0.126437 0.000000 0.027778
0.431034 0.137931 0.000000 0.027778
0.425287 0.149425 0.000000 0.027778
0.419540 0.160920 0.000000 0.027778
0.413793 0.172414 0.000000 0.027778
0.408046 0.183908 0.000000 0.027778
0.402299 0.195402 0.000000 0.027778
0.396552 0.206897 0.000000 0.027778
0.390805 0.218391 0.000000 0.027778
0.385057 0.229885 0.000000 0.027778
0.379310 0.241379 0.000000 0.027778
