&CONTROL
   prefix = 'sodium'
   calculation = 'bands'
   restart_mode = 'from_scratch'
   wf_collect = .true.
   tstress = .false.
   tprnfor = .false.
   outdir = './'
   wfcdir = './'
   pseudo_dir = './'
/
&SYSTEM
   ibrav = 0
   celldm(1) = 7.984096
   nat = 1
   ntyp = 1
   nbnd = 2
   ecutwfc = 30.0
   occupations = 'smearing'
   smearing = 'mv'
   degauss = 0.03
/
&ELECTRONS
   electron_maxstep = 100
   conv_thr = 1.0d-10
   mixing_mode = 'plain'
   mixing_beta = 0.7
   mixing_ndim = 8
   diagonalization = 'david'
   diago_david_ndim = 4
   diago_full_acc = .true.
   startingwfc = 'random'
/
CELL_PARAMETERS alat
       0.500000000   0.500000000   0.500000000
      -0.500000000   0.500000000   0.500000000
      -0.500000000  -0.500000000   0.500000000
ATOMIC_SPECIES
  Na  22.990  Na.UPF
ATOMIC_POSITIONS crystal
  Na   0.000000000   0.000000000   0.000000000
K_POINTS crystal
 897
  0.000000000  0.000000000  0.000000000  1.0
  0.000000000  0.000000000  0.031250000 12.0
  0.000000000  0.000000000  0.062500000 12.0
  0.000000000  0.000000000  0.093750000 12.0
  0.000000000  0.000000000  0.125000000 12.0
  0.000000000  0.000000000  0.156250000 12.0
  0.000000000  0.000000000  0.187500000 12.0
  0.000000000  0.000000000  0.218750000 12.0
  0.000000000  0.000000000  0.250000000 12.0
  0.000000000  0.000000000  0.281250000 12.0
  0.000000000  0.000000000  0.312500000 12.0
  0.000000000  0.000000000  0.343750000 12.0
  0.000000000  0.000000000  0.375000000 12.0
  0.000000000  0.000000000  0.406250000 12.0
  0.000000000  0.000000000  0.437500000 12.0
  0.000000000  0.000000000  0.468750000 12.0
  0.000000000  0.000000000  0.500000000  6.0
  0.000000000  0.031250000  0.062500000 24.0
  0.000000000  0.031250000  0.093750000 48.0
  0.000000000  0.031250000  0.125000000 48.0
  0.000000000  0.031250000  0.156250000 48.0
  0.000000000  0.031250000  0.187500000 48.0
  0.000000000  0.031250000  0.218750000 48.0
  0.000000000  0.031250000  0.250000000 48.0
  0.000000000  0.031250000  0.281250000 48.0
  0.000000000  0.031250000  0.312500000 48.0
  0.000000000  0.031250000  0.343750000 48.0
  0.000000000  0.031250000  0.375000000 48.0
  0.000000000  0.031250000  0.406250000 48.0
  0.000000000  0.031250000  0.437500000 48.0
  0.000000000  0.031250000  0.468750000 48.0
  0.000000000  0.031250000  0.500000000 48.0
  0.000000000  0.062500000  0.125000000 24.0
  0.000000000  0.062500000  0.156250000 48.0
  0.000000000  0.062500000  0.187500000 48.0
  0.000000000  0.062500000  0.218750000 48.0
  0.000000000  0.062500000  0.250000000 48.0
  0.000000000  0.062500000  0.281250000 48.0
  0.000000000  0.062500000  0.312500000 48.0
  0.000000000  0.062500000  0.343750000 48.0
  0.000000000  0.062500000  0.375000000 48.0
  0.000000000  0.062500000  0.406250000 48.0
  0.000000000  0.062500000  0.437500000 48.0
  0.000000000  0.062500000  0.468750000 48.0
  0.000000000  0.062500000  0.500000000 48.0
  0.000000000  0.062500000  0.531250000 24.0
  0.000000000  0.093750000  0.187500000 24.0
  0.000000000  0.093750000  0.218750000 48.0
  0.000000000  0.093750000  0.250000000 48.0
  0.000000000  0.093750000  0.281250000 48.0
  0.000000000  0.093750000  0.312500000 48.0
  0.000000000  0.093750000  0.343750000 48.0
  0.000000000  0.093750000  0.375000000 48.0
  0.000000000  0.093750000  0.406250000 48.0
  0.000000000  0.093750000  0.437500000 48.0
  0.000000000  0.093750000  0.468750000 48.0
  0.000000000  0.093750000  0.500000000 48.0
  0.000000000  0.093750000  0.531250000 48.0
  0.000000000  0.125000000  0.250000000 24.0
  0.000000000  0.125000000  0.281250000 48.0
  0.000000000  0.125000000  0.312500000 48.0
  0.000000000  0.125000000  0.343750000 48.0
  0.000000000  0.125000000  0.375000000 48.0
  0.000000000  0.125000000  0.406250000 48.0
  0.000000000  0.125000000  0.437500000 48.0
  0.000000000  0.125000000  0.468750000 48.0
  0.000000000  0.125000000  0.500000000 48.0
  0.000000000  0.125000000  0.531250000 48.0
  0.000000000  0.125000000  0.562500000 24.0
  0.000000000  0.156250000  0.312500000 24.0
  0.000000000  0.156250000  0.343750000 48.0
  0.000000000  0.156250000  0.375000000 48.0
  0.000000000  0.156250000  0.406250000 48.0
  0.000000000  0.156250000  0.437500000 48.0
  0.000000000  0.156250000  0.468750000 48.0
  0.000000000  0.156250000  0.500000000 48.0
  0.000000000  0.156250000  0.531250000 48.0
  0.000000000  0.156250000  0.562500000 48.0
  0.000000000  0.187500000  0.375000000 24.0
  0.000000000  0.187500000  0.406250000 48.0
  0.000000000  0.187500000  0.437500000 48.0
  0.000000000  0.187500000  0.468750000 48.0
  0.000000000  0.187500000  0.500000000 48.0
  0.000000000  0.187500000  0.531250000 48.0
  0.000000000  0.187500000  0.562500000 48.0
  0.000000000  0.187500000  0.593750000 24.0
  0.000000000  0.218750000  0.437500000 24.0
  0.000000000  0.218750000  0.468750000 48.0
  0.000000000  0.218750000  0.500000000 48.0
  0.000000000  0.218750000  0.531250000 48.0
  0.000000000  0.218750000  0.562500000 48.0
  0.000000000  0.218750000  0.593750000 48.0
  0.000000000  0.250000000  0.500000000 24.0
  0.000000000  0.250000000  0.531250000 48.0
  0.000000000  0.250000000  0.562500000 48.0
  0.000000000  0.250000000  0.593750000 48.0
  0.000000000  0.250000000  0.625000000 24.0
  0.000000000  0.281250000  0.562500000 24.0
  0.000000000  0.281250000  0.593750000 48.0
  0.000000000  0.281250000  0.625000000 48.0
  0.000000000  0.312500000  0.625000000 24.0
  0.000000000  0.312500000  0.656250000 24.0
  0.031250000  0.031250000  0.031250000  6.0
  0.031250000  0.031250000  0.062500000 24.0
  0.031250000  0.031250000  0.093750000 24.0
  0.031250000  0.031250000  0.125000000 24.0
  0.031250000  0.031250000  0.156250000 24.0
  0.031250000  0.031250000  0.187500000 24.0
  0.031250000  0.031250000  0.218750000 24.0
  0.031250000  0.031250000  0.250000000 24.0
  0.031250000  0.031250000  0.281250000 24.0
  0.031250000  0.031250000  0.312500000 24.0
  0.031250000  0.031250000  0.343750000 24.0
  0.031250000  0.031250000  0.375000000 24.0
  0.031250000  0.031250000  0.406250000 24.0
  0.031250000  0.031250000  0.437500000 24.0
  0.031250000  0.031250000  0.468750000 24.0
  0.031250000  0.031250000  0.500000000 12.0
  0.031250000  0.062500000  0.093750000 24.0
  0.031250000  0.062500000  0.125000000 48.0
  0.031250000  0.062500000  0.156250000 48.0
  0.031250000  0.062500000  0.187500000 48.0
  0.031250000  0.062500000  0.218750000 48.0
  0.031250000  0.062500000  0.250000000 48.0
  0.031250000  0.062500000  0.281250000 48.0
  0.031250000  0.062500000  0.312500000 48.0
  0.031250000  0.062500000  0.343750000 48.0
  0.031250000  0.062500000  0.375000000 48.0
  0.031250000  0.062500000  0.406250000 48.0
  0.031250000  0.062500000  0.437500000 48.0
  0.031250000  0.062500000  0.468750000 48.0
  0.031250000  0.062500000  0.500000000 48.0
  0.031250000  0.093750000  0.031250000  8.0
  0.031250000  0.093750000  0.156250000 24.0
  0.031250000  0.093750000  0.187500000 48.0
  0.031250000  0.093750000  0.218750000 48.0
  0.031250000  0.093750000  0.250000000 48.0
  0.031250000  0.093750000  0.281250000 48.0
  0.031250000  0.093750000  0.312500000 48.0
  0.031250000  0.093750000  0.343750000 48.0
  0.031250000  0.093750000  0.375000000 48.0
  0.031250000  0.093750000  0.406250000 48.0
  0.031250000  0.093750000  0.437500000 48.0
  0.031250000  0.093750000  0.468750000 48.0
  0.031250000  0.093750000  0.500000000 48.0
  0.031250000  0.093750000  0.531250000 24.0
  0.031250000  0.125000000  0.031250000 24.0
  0.031250000  0.125000000  0.218750000 24.0
  0.031250000  0.125000000  0.250000000 48.0
  0.031250000  0.125000000  0.281250000 48.0
  0.031250000  0.125000000  0.312500000 48.0
  0.031250000  0.125000000  0.343750000 48.0
  0.031250000  0.125000000  0.375000000 48.0
  0.031250000  0.125000000  0.406250000 48.0
  0.031250000  0.125000000  0.437500000 48.0
  0.031250000  0.125000000  0.468750000 48.0
  0.031250000  0.125000000  0.500000000 48.0
  0.031250000  0.125000000  0.531250000 48.0
  0.031250000  0.156250000  0.031250000 24.0
  0.031250000  0.156250000  0.062500000 24.0
  0.031250000  0.156250000  0.281250000 24.0
  0.031250000  0.156250000  0.312500000 48.0
  0.031250000  0.156250000  0.343750000 48.0
  0.031250000  0.156250000  0.375000000 48.0
  0.031250000  0.156250000  0.406250000 48.0
  0.031250000  0.156250000  0.437500000 48.0
  0.031250000  0.156250000  0.468750000 48.0
  0.031250000  0.156250000  0.500000000 48.0
  0.031250000  0.156250000  0.531250000 48.0
  0.031250000  0.156250000  0.562500000 24.0
  0.031250000  0.187500000  0.031250000 24.0
  0.031250000  0.187500000  0.062500000 48.0
  0.031250000  0.187500000  0.343750000 24.0
  0.031250000  0.187500000  0.375000000 48.0
  0.031250000  0.187500000  0.406250000 48.0
  0.031250000  0.187500000  0.437500000 48.0
  0.031250000  0.187500000  0.468750000 48.0
  0.031250000  0.187500000  0.500000000 48.0
  0.031250000  0.187500000  0.531250000 48.0
  0.031250000  0.187500000  0.562500000 48.0
  0.031250000  0.218750000  0.031250000 24.0
  0.031250000  0.218750000  0.062500000 48.0
  0.031250000  0.218750000  0.093750000 24.0
  0.031250000  0.218750000  0.406250000 24.0
  0.031250000  0.218750000  0.437500000 48.0
  0.031250000  0.218750000  0.468750000 48.0
  0.031250000  0.218750000  0.500000000 48.0
  0.031250000  0.218750000  0.531250000 48.0
  0.031250000  0.218750000  0.562500000 48.0
  0.031250000  0.218750000  0.593750000 24.0
  0.031250000  0.250000000  0.031250000 24.0
  0.031250000  0.250000000  0.062500000 48.0
  0.031250000  0.250000000  0.093750000 48.0
  0.031250000  0.250000000  0.468750000 24.0
  0.031250000  0.250000000  0.500000000 48.0
  0.031250000  0.250000000  0.531250000 48.0
  0.031250000  0.250000000  0.562500000 48.0
  0.031250000  0.250000000  0.593750000 48.0
  0.031250000  0.281250000  0.031250000 24.0
  0.031250000  0.281250000  0.062500000 48.0
  0.031250000  0.281250000  0.093750000 48.0
  0.031250000  0.281250000  0.125000000 24.0
  0.031250000  0.281250000  0.531250000 24.0
  0.031250000  0.281250000  0.562500000 48.0
  0.031250000  0.281250000  0.593750000 48.0
  0.031250000  0.281250000  0.625000000 24.0
  0.031250000  0.312500000  0.031250000 24.0
  0.031250000  0.312500000  0.062500000 48.0
  0.031250000  0.312500000  0.093750000 48.0
  0.031250000  0.312500000  0.125000000 48.0
  0.031250000  0.312500000  0.593750000 24.0
  0.031250000  0.312500000  0.625000000 48.0
  0.031250000  0.343750000  0.031250000 24.0
  0.031250000  0.343750000  0.062500000 48.0
  0.031250000  0.343750000  0.093750000 48.0
  0.031250000  0.343750000  0.125000000 48.0
  0.031250000  0.343750000  0.156250000 24.0
  0.031250000  0.343750000  0.656250000  8.0
  0.031250000  0.375000000  0.031250000 24.0
  0.031250000  0.375000000  0.062500000 48.0
  0.031250000  0.375000000  0.093750000 48.0
  0.031250000  0.375000000  0.125000000 48.0
  0.031250000  0.375000000  0.156250000 48.0
  0.031250000  0.406250000  0.031250000 24.0
  0.031250000  0.406250000  0.062500000 48.0
  0.031250000  0.406250000  0.093750000 48.0
  0.031250000  0.406250000  0.125000000 48.0
  0.031250000  0.406250000  0.156250000 48.0
  0.031250000  0.406250000  0.187500000 24.0
  0.031250000  0.437500000  0.031250000 24.0
  0.031250000  0.437500000  0.062500000 48.0
  0.031250000  0.437500000  0.093750000 48.0
  0.031250000  0.437500000  0.125000000 48.0
  0.031250000  0.437500000  0.156250000 48.0
  0.031250000  0.437500000  0.187500000 48.0
  0.031250000  0.468750000  0.031250000 24.0
  0.031250000  0.468750000  0.062500000 48.0
  0.031250000  0.468750000  0.093750000 48.0
  0.031250000  0.468750000  0.125000000 48.0
  0.031250000  0.468750000  0.156250000 48.0
  0.031250000  0.468750000  0.187500000 48.0
  0.031250000  0.468750000  0.218750000 24.0
  0.031250000  0.500000000  0.031250000 24.0
  0.031250000  0.500000000  0.062500000 48.0
  0.031250000  0.500000000  0.093750000 48.0
  0.031250000  0.500000000  0.125000000 48.0
  0.031250000  0.500000000  0.156250000 48.0
  0.031250000  0.500000000  0.187500000 48.0
  0.031250000  0.500000000  0.218750000 48.0
  0.031250000  0.531250000  0.031250000 12.0
  0.031250000  0.531250000  0.062500000 48.0
  0.031250000  0.531250000  0.093750000 48.0
  0.031250000  0.531250000  0.125000000 48.0
  0.031250000  0.531250000  0.156250000 48.0
  0.031250000  0.531250000  0.187500000 48.0
  0.031250000  0.531250000  0.218750000 48.0
  0.031250000  0.531250000  0.250000000 24.0
  0.031250000  0.562500000  0.093750000 24.0
  0.031250000  0.562500000  0.125000000 48.0
  0.031250000  0.562500000  0.156250000 48.0
  0.031250000  0.562500000  0.187500000 48.0
  0.031250000  0.562500000  0.218750000 48.0
  0.031250000  0.562500000  0.250000000 48.0
  0.031250000  0.593750000  0.156250000 24.0
  0.031250000  0.593750000  0.187500000 48.0
  0.031250000  0.593750000  0.218750000 48.0
  0.031250000  0.593750000  0.250000000 48.0
  0.031250000  0.593750000  0.281250000 24.0
  0.031250000  0.625000000  0.218750000 24.0
  0.031250000  0.625000000  0.250000000 48.0
  0.031250000  0.625000000  0.281250000 48.0
  0.031250000  0.656250000  0.281250000 24.0
  0.031250000  0.656250000  0.312500000 24.0
  0.062500000  0.062500000  0.062500000  6.0
  0.062500000  0.062500000  0.093750000 24.0
  0.062500000  0.062500000  0.125000000 24.0
  0.062500000  0.062500000  0.156250000 24.0
  0.062500000  0.062500000  0.187500000 24.0
  0.062500000  0.062500000  0.218750000 24.0
  0.062500000  0.062500000  0.250000000 24.0
  0.062500000  0.062500000  0.281250000 24.0
  0.062500000  0.062500000  0.312500000 24.0
  0.062500000  0.062500000  0.343750000 24.0
  0.062500000  0.062500000  0.375000000 24.0
  0.062500000  0.062500000  0.406250000 24.0
  0.062500000  0.062500000  0.437500000 24.0
  0.062500000  0.062500000  0.468750000 24.0
  0.062500000  0.062500000  0.500000000 12.0
  0.062500000  0.093750000  0.125000000 24.0
  0.062500000  0.093750000  0.156250000 48.0
  0.062500000  0.093750000  0.187500000 48.0
  0.062500000  0.093750000  0.218750000 48.0
  0.062500000  0.093750000  0.250000000 48.0
  0.062500000  0.093750000  0.281250000 48.0
  0.062500000  0.093750000  0.312500000 48.0
  0.062500000  0.093750000  0.343750000 48.0
  0.062500000  0.093750000  0.375000000 48.0
  0.062500000  0.093750000  0.406250000 48.0
  0.062500000  0.093750000  0.437500000 48.0
  0.062500000  0.093750000  0.468750000 48.0
  0.062500000  0.093750000  0.500000000 48.0
  0.062500000  0.125000000  0.187500000 24.0
  0.062500000  0.125000000  0.218750000 48.0
  0.062500000  0.125000000  0.250000000 48.0
  0.062500000  0.125000000  0.281250000 48.0
  0.062500000  0.125000000  0.312500000 48.0
  0.062500000  0.125000000  0.343750000 48.0
  0.062500000  0.125000000  0.375000000 48.0
  0.062500000  0.125000000  0.406250000 48.0
  0.062500000  0.125000000  0.437500000 48.0
  0.062500000  0.125000000  0.468750000 48.0
  0.062500000  0.125000000  0.500000000 48.0
  0.062500000  0.125000000  0.531250000 24.0
  0.062500000  0.156250000  0.250000000 24.0
  0.062500000  0.156250000  0.281250000 48.0
  0.062500000  0.156250000  0.312500000 48.0
  0.062500000  0.156250000  0.343750000 48.0
  0.062500000  0.156250000  0.375000000 48.0
  0.062500000  0.156250000  0.406250000 48.0
  0.062500000  0.156250000  0.437500000 48.0
  0.062500000  0.156250000  0.468750000 48.0
  0.062500000  0.156250000  0.500000000 48.0
  0.062500000  0.156250000  0.531250000 48.0
  0.062500000  0.187500000  0.062500000  8.0
  0.062500000  0.187500000  0.312500000 24.0
  0.062500000  0.187500000  0.343750000 48.0
  0.062500000  0.187500000  0.375000000 48.0
  0.062500000  0.187500000  0.406250000 48.0
  0.062500000  0.187500000  0.437500000 48.0
  0.062500000  0.187500000  0.468750000 48.0
  0.062500000  0.187500000  0.500000000 48.0
  0.062500000  0.187500000  0.531250000 48.0
  0.062500000  0.187500000  0.562500000 24.0
  0.062500000  0.218750000  0.062500000 24.0
  0.062500000  0.218750000  0.375000000 24.0
  0.062500000  0.218750000  0.406250000 48.0
  0.062500000  0.218750000  0.437500000 48.0
  0.062500000  0.218750000  0.468750000 48.0
  0.062500000  0.218750000  0.500000000 48.0
  0.062500000  0.218750000  0.531250000 48.0
  0.062500000  0.218750000  0.562500000 48.0
  0.062500000  0.250000000  0.062500000 24.0
  0.062500000  0.250000000  0.093750000 24.0
  0.062500000  0.250000000  0.437500000 24.0
  0.062500000  0.250000000  0.468750000 48.0
  0.062500000  0.250000000  0.500000000 48.0
  0.062500000  0.250000000  0.531250000 48.0
  0.062500000  0.250000000  0.562500000 48.0
  0.062500000  0.250000000  0.593750000 24.0
  0.062500000  0.281250000  0.062500000 24.0
  0.062500000  0.281250000  0.093750000 48.0
  0.062500000  0.281250000  0.500000000 24.0
  0.062500000  0.281250000  0.531250000 48.0
  0.062500000  0.281250000  0.562500000 48.0
  0.062500000  0.281250000  0.593750000 48.0
  0.062500000  0.312500000  0.062500000 24.0
  0.062500000  0.312500000  0.093750000 48.0
  0.062500000  0.312500000  0.125000000 24.0
  0.062500000  0.312500000  0.562500000 24.0
  0.062500000  0.312500000  0.593750000 48.0
  0.062500000  0.312500000  0.625000000 24.0
  0.062500000  0.343750000  0.062500000 24.0
  0.062500000  0.343750000  0.093750000 48.0
  0.062500000  0.343750000  0.125000000 48.0
  0.062500000  0.343750000  0.625000000 24.0
  0.062500000  0.375000000  0.062500000 24.0
  0.062500000  0.375000000  0.093750000 48.0
  0.062500000  0.375000000  0.125000000 48.0
  0.062500000  0.375000000  0.156250000 24.0
  0.062500000  0.406250000  0.062500000 24.0
  0.062500000  0.406250000  0.093750000 48.0
  0.062500000  0.406250000  0.125000000 48.0
  0.062500000  0.406250000  0.156250000 48.0
  0.062500000  0.437500000  0.062500000 24.0
  0.062500000  0.437500000  0.093750000 48.0
  0.062500000  0.437500000  0.125000000 48.0
  0.062500000  0.437500000  0.156250000 48.0
  0.062500000  0.437500000  0.187500000 24.0
  0.062500000  0.468750000  0.062500000 24.0
  0.062500000  0.468750000  0.093750000 48.0
  0.062500000  0.468750000  0.125000000 48.0
  0.062500000  0.468750000  0.156250000 48.0
  0.062500000  0.468750000  0.187500000 48.0
  0.062500000  0.500000000  0.062500000 24.0
  0.062500000  0.500000000  0.093750000 48.0
  0.062500000  0.500000000  0.125000000 48.0
  0.062500000  0.500000000  0.156250000 48.0
  0.062500000  0.500000000  0.187500000 48.0
  0.062500000  0.500000000  0.218750000 24.0
  0.062500000  0.531250000  0.062500000 24.0
  0.062500000  0.531250000  0.093750000 48.0
  0.062500000  0.531250000  0.125000000 48.0
  0.062500000  0.531250000  0.156250000 48.0
  0.062500000  0.531250000  0.187500000 48.0
  0.062500000  0.531250000  0.218750000 48.0
  0.062500000  0.562500000  0.062500000 12.0
  0.062500000  0.562500000  0.093750000 48.0
  0.062500000  0.562500000  0.125000000 48.0
  0.062500000  0.562500000  0.156250000 48.0
  0.062500000  0.562500000  0.187500000 48.0
  0.062500000  0.562500000  0.218750000 48.0
  0.062500000  0.562500000  0.250000000 24.0
  0.062500000  0.593750000  0.125000000 24.0
  0.062500000  0.593750000  0.156250000 48.0
  0.062500000  0.593750000  0.187500000 48.0
  0.062500000  0.593750000  0.218750000 48.0
  0.062500000  0.593750000  0.250000000 48.0
  0.062500000  0.625000000  0.187500000 24.0
  0.062500000  0.625000000  0.218750000 48.0
  0.062500000  0.625000000  0.250000000 48.0
  0.062500000  0.625000000  0.281250000 24.0
  0.062500000  0.656250000  0.250000000 24.0
  0.062500000  0.656250000  0.281250000 48.0
  0.062500000  0.687500000  0.312500000  8.0
  0.093750000  0.093750000  0.093750000  6.0
  0.093750000  0.093750000  0.125000000 24.0
  0.093750000  0.093750000  0.156250000 24.0
  0.093750000  0.093750000  0.187500000 24.0
  0.093750000  0.093750000  0.218750000 24.0
  0.093750000  0.093750000  0.250000000 24.0
  0.093750000  0.093750000  0.281250000 24.0
  0.093750000  0.093750000  0.312500000 24.0
  0.093750000  0.093750000  0.343750000 24.0
  0.093750000  0.093750000  0.375000000 24.0
  0.093750000  0.093750000  0.406250000 24.0
  0.093750000  0.093750000  0.437500000 24.0
  0.093750000  0.093750000  0.468750000 24.0
  0.093750000  0.093750000  0.500000000 12.0
  0.093750000  0.125000000  0.156250000 24.0
  0.093750000  0.125000000  0.187500000 48.0
  0.093750000  0.125000000  0.218750000 48.0
  0.093750000  0.125000000  0.250000000 48.0
  0.093750000  0.125000000  0.281250000 48.0
  0.093750000  0.125000000  0.312500000 48.0
  0.093750000  0.125000000  0.343750000 48.0
  0.093750000  0.125000000  0.375000000 48.0
  0.093750000  0.125000000  0.406250000 48.0
  0.093750000  0.125000000  0.437500000 48.0
  0.093750000  0.125000000  0.468750000 48.0
  0.093750000  0.125000000  0.500000000 48.0
  0.093750000  0.156250000  0.218750000 24.0
  0.093750000  0.156250000  0.250000000 48.0
  0.093750000  0.156250000  0.281250000 48.0
  0.093750000  0.156250000  0.312500000 48.0
  0.093750000  0.156250000  0.343750000 48.0
  0.093750000  0.156250000  0.375000000 48.0
  0.093750000  0.156250000  0.406250000 48.0
  0.093750000  0.156250000  0.437500000 48.0
  0.093750000  0.156250000  0.468750000 48.0
  0.093750000  0.156250000  0.500000000 48.0
  0.093750000  0.156250000  0.531250000 24.0
  0.093750000  0.187500000  0.281250000 24.0
  0.093750000  0.187500000  0.312500000 48.0
  0.093750000  0.187500000  0.343750000 48.0
  0.093750000  0.187500000  0.375000000 48.0
  0.093750000  0.187500000  0.406250000 48.0
  0.093750000  0.187500000  0.437500000 48.0
  0.093750000  0.187500000  0.468750000 48.0
  0.093750000  0.187500000  0.500000000 48.0
  0.093750000  0.187500000  0.531250000 48.0
  0.093750000  0.218750000  0.343750000 24.0
  0.093750000  0.218750000  0.375000000 48.0
  0.093750000  0.218750000  0.406250000 48.0
  0.093750000  0.218750000  0.437500000 48.0
  0.093750000  0.218750000  0.468750000 48.0
  0.093750000  0.218750000  0.500000000 48.0
  0.093750000  0.218750000  0.531250000 48.0
  0.093750000  0.218750000  0.562500000 24.0
  0.093750000  0.250000000  0.406250000 24.0
  0.093750000  0.250000000  0.437500000 48.0
  0.093750000  0.250000000  0.468750000 48.0
  0.093750000  0.250000000  0.500000000 48.0
  0.093750000  0.250000000  0.531250000 48.0
  0.093750000  0.250000000  0.562500000 48.0
  0.093750000  0.281250000  0.093750000  8.0
  0.093750000  0.281250000  0.468750000 24.0
  0.093750000  0.281250000  0.500000000 48.0
  0.093750000  0.281250000  0.531250000 48.0
  0.093750000  0.281250000  0.562500000 48.0
  0.093750000  0.281250000  0.593750000 24.0
  0.093750000  0.312500000  0.093750000 24.0
  0.093750000  0.312500000  0.531250000 24.0
  0.093750000  0.312500000  0.562500000 48.0
  0.093750000  0.312500000  0.593750000 48.0
  0.093750000  0.343750000  0.093750000 24.0
  0.093750000  0.343750000  0.125000000 24.0
  0.093750000  0.343750000  0.593750000 24.0
  0.093750000  0.343750000  0.625000000 24.0
  0.093750000  0.375000000  0.093750000 24.0
  0.093750000  0.375000000  0.125000000 48.0
  0.093750000  0.406250000  0.093750000 24.0
  0.093750000  0.406250000  0.125000000 48.0
  0.093750000  0.406250000  0.156250000 24.0
  0.093750000  0.437500000  0.093750000 24.0
  0.093750000  0.437500000  0.125000000 48.0
  0.093750000  0.437500000  0.156250000 48.0
  0.093750000  0.468750000  0.093750000 24.0
  0.093750000  0.468750000  0.125000000 48.0
  0.093750000  0.468750000  0.156250000 48.0
  0.093750000  0.468750000  0.187500000 24.0
  0.093750000  0.500000000  0.093750000 24.0
  0.093750000  0.500000000  0.125000000 48.0
  0.093750000  0.500000000  0.156250000 48.0
  0.093750000  0.500000000  0.187500000 48.0
  0.093750000  0.531250000  0.093750000 24.0
  0.093750000  0.531250000  0.125000000 48.0
  0.093750000  0.531250000  0.156250000 48.0
  0.093750000  0.531250000  0.187500000 48.0
  0.093750000  0.531250000  0.218750000 24.0
  0.093750000  0.562500000  0.093750000 24.0
  0.093750000  0.562500000  0.125000000 48.0
  0.093750000  0.562500000  0.156250000 48.0
  0.093750000  0.562500000  0.187500000 48.0
  0.093750000  0.562500000  0.218750000 48.0
  0.093750000  0.593750000  0.093750000 12.0
  0.093750000  0.593750000  0.125000000 48.0
  0.093750000  0.593750000  0.156250000 48.0
  0.093750000  0.593750000  0.187500000 48.0
  0.093750000  0.593750000  0.218750000 48.0
  0.093750000  0.593750000  0.250000000 24.0
  0.093750000  0.625000000  0.156250000 24.0
  0.093750000  0.625000000  0.187500000 48.0
  0.093750000  0.625000000  0.218750000 48.0
  0.093750000  0.625000000  0.250000000 48.0
  0.093750000  0.656250000  0.218750000 24.0
  0.093750000  0.656250000  0.250000000 48.0
  0.093750000  0.656250000  0.281250000 24.0
  0.093750000  0.687500000  0.281250000 24.0
  0.125000000  0.125000000  0.125000000  6.0
  0.125000000  0.125000000  0.156250000 24.0
  0.125000000  0.125000000  0.187500000 24.0
  0.125000000  0.125000000  0.218750000 24.0
  0.125000000  0.125000000  0.250000000 24.0
  0.125000000  0.125000000  0.281250000 24.0
  0.125000000  0.125000000  0.312500000 24.0
  0.125000000  0.125000000  0.343750000 24.0
  0.125000000  0.125000000  0.375000000 24.0
  0.125000000  0.125000000  0.406250000 24.0
  0.125000000  0.125000000  0.437500000 24.0
  0.125000000  0.125000000  0.468750000 24.0
  0.125000000  0.125000000  0.500000000 12.0
  0.125000000  0.156250000  0.187500000 24.0
  0.125000000  0.156250000  0.218750000 48.0
  0.125000000  0.156250000  0.250000000 48.0
  0.125000000  0.156250000  0.281250000 48.0
  0.125000000  0.156250000  0.312500000 48.0
  0.125000000  0.156250000  0.343750000 48.0
  0.125000000  0.156250000  0.375000000 48.0
  0.125000000  0.156250000  0.406250000 48.0
  0.125000000  0.156250000  0.437500000 48.0
  0.125000000  0.156250000  0.468750000 48.0
  0.125000000  0.156250000  0.500000000 48.0
  0.125000000  0.187500000  0.250000000 24.0
  0.125000000  0.187500000  0.281250000 48.0
  0.125000000  0.187500000  0.312500000 48.0
  0.125000000  0.187500000  0.343750000 48.0
  0.125000000  0.187500000  0.375000000 48.0
  0.125000000  0.187500000  0.406250000 48.0
  0.125000000  0.187500000  0.437500000 48.0
  0.125000000  0.187500000  0.468750000 48.0
  0.125000000  0.187500000  0.500000000 48.0
  0.125000000  0.187500000  0.531250000 24.0
  0.125000000  0.218750000  0.312500000 24.0
  0.125000000  0.218750000  0.343750000 48.0
  0.125000000  0.218750000  0.375000000 48.0
  0.125000000  0.218750000  0.406250000 48.0
  0.125000000  0.218750000  0.437500000 48.0
  0.125000000  0.218750000  0.468750000 48.0
  0.125000000  0.218750000  0.500000000 48.0
  0.125000000  0.218750000  0.531250000 48.0
  0.125000000  0.250000000  0.375000000 24.0
  0.125000000  0.250000000  0.406250000 48.0
  0.125000000  0.250000000  0.437500000 48.0
  0.125000000  0.250000000  0.468750000 48.0
  0.125000000  0.250000000  0.500000000 48.0
  0.125000000  0.250000000  0.531250000 48.0
  0.125000000  0.250000000  0.562500000 24.0
  0.125000000  0.281250000  0.437500000 24.0
  0.125000000  0.281250000  0.468750000 48.0
  0.125000000  0.281250000  0.500000000 48.0
  0.125000000  0.281250000  0.531250000 48.0
  0.125000000  0.281250000  0.562500000 48.0
  0.125000000  0.312500000  0.500000000 24.0
  0.125000000  0.312500000  0.531250000 48.0
  0.125000000  0.312500000  0.562500000 48.0
  0.125000000  0.312500000  0.593750000 24.0
  0.125000000  0.343750000  0.562500000 24.0
  0.125000000  0.343750000  0.593750000 48.0
  0.125000000  0.375000000  0.125000000  8.0
  0.125000000  0.375000000  0.625000000  8.0
  0.125000000  0.406250000  0.125000000 24.0
  0.125000000  0.437500000  0.125000000 24.0
  0.125000000  0.437500000  0.156250000 24.0
  0.125000000  0.468750000  0.125000000 24.0
  0.125000000  0.468750000  0.156250000 48.0
  0.125000000  0.500000000  0.125000000 24.0
  0.125000000  0.500000000  0.156250000 48.0
  0.125000000  0.500000000  0.187500000 24.0
  0.125000000  0.531250000  0.125000000 24.0
  0.125000000  0.531250000  0.156250000 48.0
  0.125000000  0.531250000  0.187500000 48.0
  0.125000000  0.562500000  0.125000000 24.0
  0.125000000  0.562500000  0.156250000 48.0
  0.125000000  0.562500000  0.187500000 48.0
  0.125000000  0.562500000  0.218750000 24.0
  0.125000000  0.593750000  0.125000000 24.0
  0.125000000  0.593750000  0.156250000 48.0
  0.125000000  0.593750000  0.187500000 48.0
  0.125000000  0.593750000  0.218750000 48.0
  0.125000000  0.625000000  0.125000000 12.0
  0.125000000  0.625000000  0.156250000 48.0
  0.125000000  0.625000000  0.187500000 48.0
  0.125000000  0.625000000  0.218750000 48.0
  0.125000000  0.625000000  0.250000000 24.0
  0.125000000  0.656250000  0.187500000 24.0
  0.125000000  0.656250000  0.218750000 48.0
  0.125000000  0.656250000  0.250000000 48.0
  0.125000000  0.687500000  0.250000000 24.0
  0.125000000  0.687500000  0.281250000 24.0
  0.156250000  0.156250000  0.156250000  6.0
  0.156250000  0.156250000  0.187500000 24.0
  0.156250000  0.156250000  0.218750000 24.0
  0.156250000  0.156250000  0.250000000 24.0
  0.156250000  0.156250000  0.281250000 24.0
  0.156250000  0.156250000  0.312500000 24.0
  0.156250000  0.156250000  0.343750000 24.0
  0.156250000  0.156250000  0.375000000 24.0
  0.156250000  0.156250000  0.406250000 24.0
  0.156250000  0.156250000  0.437500000 24.0
  0.156250000  0.156250000  0.468750000 24.0
  0.156250000  0.156250000  0.500000000 12.0
  0.156250000  0.187500000  0.218750000 24.0
  0.156250000  0.187500000  0.250000000 48.0
  0.156250000  0.187500000  0.281250000 48.0
  0.156250000  0.187500000  0.312500000 48.0
  0.156250000  0.187500000  0.343750000 48.0
  0.156250000  0.187500000  0.375000000 48.0
  0.156250000  0.187500000  0.406250000 48.0
  0.156250000  0.187500000  0.437500000 48.0
  0.156250000  0.187500000  0.468750000 48.0
  0.156250000  0.187500000  0.500000000 48.0
  0.156250000  0.218750000  0.281250000 24.0
  0.156250000  0.218750000  0.312500000 48.0
  0.156250000  0.218750000  0.343750000 48.0
  0.156250000  0.218750000  0.375000000 48.0
  0.156250000  0.218750000  0.406250000 48.0