&control
   prefix = 'silicon'
   calculation = 'bands'
   restart_mode = 'from_scratch'
   wf_collect = .true.
   tstress = .false.
   tprnfor = .false.
   outdir = './'
   wfcdir = './'
   pseudo_dir = './'
/
&system
   ibrav = 0
   celldm(1) = 10.2612
   nat = 2
   ntyp = 1
   nbnd = 4
   ecutwfc = 25.0
/
&electrons
   electron_maxstep = 100
   conv_thr = 1.0d-10
   mixing_mode = 'plain'
   mixing_beta = 0.7
   mixing_ndim = 8
   diagonalization = 'david'
   diago_david_ndim = 4
   diago_full_acc = .true.
   startingwfc = 'random'
/
CELL_PARAMETERS alat
       0.000000000   0.500000000   0.500000000
       0.500000000   0.000000000   0.500000000
       0.500000000   0.500000000   0.000000000
ATOMIC_SPECIES
  Si  28.086  Si.UPF
ATOMIC_POSITIONS crystal
  Si  -0.125000000  -0.125000000  -0.125000000
  Si   0.125000000   0.125000000   0.125000000
K_POINTS crystal
  1000
  0.047000000  0.037000000  0.032000000  1.0
  0.047000000  0.037000000  0.132000000  1.0
  0.047000000  0.037000000  0.232000000  1.0
  0.047000000  0.037000000  0.332000000  1.0
  0.047000000  0.037000000  0.432000000  1.0
  0.047000000  0.037000000  0.532000000  1.0
  0.047000000  0.037000000  0.632000000  1.0
  0.047000000  0.037000000  0.732000000  1.0
  0.047000000  0.037000000  0.832000000  1.0
  0.047000000  0.037000000  0.932000000  1.0
  0.047000000  0.137000000  0.032000000  1.0
  0.047000000  0.137000000  0.132000000  1.0
  0.047000000  0.137000000  0.232000000  1.0
  0.047000000  0.137000000  0.332000000  1.0
  0.047000000  0.137000000  0.432000000  1.0
  0.047000000  0.137000000  0.532000000  1.0
  0.047000000  0.137000000  0.632000000  1.0
  0.047000000  0.137000000  0.732000000  1.0
  0.047000000  0.137000000  0.832000000  1.0
  0.047000000  0.137000000  0.932000000  1.0
  0.047000000  0.237000000  0.032000000  1.0
  0.047000000  0.237000000  0.132000000  1.0
  0.047000000  0.237000000  0.232000000  1.0
  0.047000000  0.237000000  0.332000000  1.0
  0.047000000  0.237000000  0.432000000  1.0
  0.047000000  0.237000000  0.532000000  1.0
  0.047000000  0.237000000  0.632000000  1.0
  0.047000000  0.237000000  0.732000000  1.0
  0.047000000  0.237000000  0.832000000  1.0
  0.047000000  0.237000000  0.932000000  1.0
  0.047000000  0.337000000  0.032000000  1.0
  0.047000000  0.337000000  0.132000000  1.0
  0.047000000  0.337000000  0.232000000  1.0
  0.047000000  0.337000000  0.332000000  1.0
  0.047000000  0.337000000  0.432000000  1.0
  0.047000000  0.337000000  0.532000000  1.0
  0.047000000  0.337000000  0.632000000  1.0
  0.047000000  0.337000000  0.732000000  1.0
  0.047000000  0.337000000  0.832000000  1.0
  0.047000000  0.337000000  0.932000000  1.0
  0.047000000  0.437000000  0.032000000  1.0
  0.047000000  0.437000000  0.132000000  1.0
  0.047000000  0.437000000  0.232000000  1.0
  0.047000000  0.437000000  0.332000000  1.0
  0.047000000  0.437000000  0.432000000  1.0
  0.047000000  0.437000000  0.532000000  1.0
  0.047000000  0.437000000  0.632000000  1.0
  0.047000000  0.437000000  0.732000000  1.0
  0.047000000  0.437000000  0.832000000  1.0
  0.047000000  0.437000000  0.932000000  1.0
  0.047000000  0.537000000  0.032000000  1.0
  0.047000000  0.537000000  0.132000000  1.0
  0.047000000  0.537000000  0.232000000  1.0
  0.047000000  0.537000000  0.332000000  1.0
  0.047000000  0.537000000  0.432000000  1.0
  0.047000000  0.537000000  0.532000000  1.0
  0.047000000  0.537000000  0.632000000  1.0
  0.047000000  0.537000000  0.732000000  1.0
  0.047000000  0.537000000  0.832000000  1.0
  0.047000000  0.537000000  0.932000000  1.0
  0.047000000  0.637000000  0.032000000  1.0
  0.047000000  0.637000000  0.132000000  1.0
  0.047000000  0.637000000  0.232000000  1.0
  0.047000000  0.637000000  0.332000000  1.0
  0.047000000  0.637000000  0.432000000  1.0
  0.047000000  0.637000000  0.532000000  1.0
  0.047000000  0.637000000  0.632000000  1.0
  0.047000000  0.637000000  0.732000000  1.0
  0.047000000  0.637000000  0.832000000  1.0
  0.047000000  0.637000000  0.932000000  1.0
  0.047000000  0.737000000  0.032000000  1.0
  0.047000000  0.737000000  0.132000000  1.0
  0.047000000  0.737000000  0.232000000  1.0
  0.047000000  0.737000000  0.332000000  1.0
  0.047000000  0.737000000  0.432000000  1.0
  0.047000000  0.737000000  0.532000000  1.0
  0.047000000  0.737000000  0.632000000  1.0
  0.047000000  0.737000000  0.732000000  1.0
  0.047000000  0.737000000  0.832000000  1.0
  0.047000000  0.737000000  0.932000000  1.0
  0.047000000  0.837000000  0.032000000  1.0
  0.047000000  0.837000000  0.132000000  1.0
  0.047000000  0.837000000  0.232000000  1.0
  0.047000000  0.837000000  0.332000000  1.0
  0.047000000  0.837000000  0.432000000  1.0
  0.047000000  0.837000000  0.532000000  1.0
  0.047000000  0.837000000  0.632000000  1.0
  0.047000000  0.837000000  0.732000000  1.0
  0.047000000  0.837000000  0.832000000  1.0
  0.047000000  0.837000000  0.932000000  1.0
  0.047000000  0.937000000  0.032000000  1.0
  0.047000000  0.937000000  0.132000000  1.0
  0.047000000  0.937000000  0.232000000  1.0
  0.047000000  0.937000000  0.332000000  1.0
  0.047000000  0.937000000  0.432000000  1.0
  0.047000000  0.937000000  0.532000000  1.0
  0.047000000  0.937000000  0.632000000  1.0
  0.047000000  0.937000000  0.732000000  1.0
  0.047000000  0.937000000  0.832000000  1.0
  0.047000000  0.937000000  0.932000000  1.0
  0.147000000  0.037000000  0.032000000  1.0
  0.147000000  0.037000000  0.132000000  1.0
  0.147000000  0.037000000  0.232000000  1.0
  0.147000000  0.037000000  0.332000000  1.0
  0.147000000  0.037000000  0.432000000  1.0
  0.147000000  0.037000000  0.532000000  1.0
  0.147000000  0.037000000  0.632000000  1.0
  0.147000000  0.037000000  0.732000000  1.0
  0.147000000  0.037000000  0.832000000  1.0
  0.147000000  0.037000000  0.932000000  1.0
  0.147000000  0.137000000  0.032000000  1.0
  0.147000000  0.137000000  0.132000000  1.0
  0.147000000  0.137000000  0.232000000  1.0
  0.147000000  0.137000000  0.332000000  1.0
  0.147000000  0.137000000  0.432000000  1.0
  0.147000000  0.137000000  0.532000000  1.0
  0.147000000  0.137000000  0.632000000  1.0
  0.147000000  0.137000000  0.732000000  1.0
  0.147000000  0.137000000  0.832000000  1.0
  0.147000000  0.137000000  0.932000000  1.0
  0.147000000  0.237000000  0.032000000  1.0
  0.147000000  0.237000000  0.132000000  1.0
  0.147000000  0.237000000  0.232000000  1.0
  0.147000000  0.237000000  0.332000000  1.0
  0.147000000  0.237000000  0.432000000  1.0
  0.147000000  0.237000000  0.532000000  1.0
  0.147000000  0.237000000  0.632000000  1.0
  0.147000000  0.237000000  0.732000000  1.0
  0.147000000  0.237000000  0.832000000  1.0
  0.147000000  0.237000000  0.932000000  1.0
  0.147000000  0.337000000  0.032000000  1.0
  0.147000000  0.337000000  0.132000000  1.0
  0.147000000  0.337000000  0.232000000  1.0
  0.147000000  0.337000000  0.332000000  1.0
  0.147000000  0.337000000  0.432000000  1.0
  0.147000000  0.337000000  0.532000000  1.0
  0.147000000  0.337000000  0.632000000  1.0
  0.147000000  0.337000000  0.732000000  1.0
  0.147000000  0.337000000  0.832000000  1.0
  0.147000000  0.337000000  0.932000000  1.0
  0.147000000  0.437000000  0.032000000  1.0
  0.147000000  0.437000000  0.132000000  1.0
  0.147000000  0.437000000  0.232000000  1.0
  0.147000000  0.437000000  0.332000000  1.0
  0.147000000  0.437000000  0.432000000  1.0
  0.147000000  0.437000000  0.532000000  1.0
  0.147000000  0.437000000  0.632000000  1.0
  0.147000000  0.437000000  0.732000000  1.0
  0.147000000  0.437000000  0.832000000  1.0
  0.147000000  0.437000000  0.932000000  1.0
  0.147000000  0.537000000  0.032000000  1.0
  0.147000000  0.537000000  0.132000000  1.0
  0.147000000  0.537000000  0.232000000  1.0
  0.147000000  0.537000000  0.332000000  1.0
  0.147000000  0.537000000  0.432000000  1.0
  0.147000000  0.537000000  0.532000000  1.0
  0.147000000  0.537000000  0.632000000  1.0
  0.147000000  0.537000000  0.732000000  1.0
  0.147000000  0.537000000  0.832000000  1.0
  0.147000000  0.537000000  0.932000000  1.0
  0.147000000  0.637000000  0.032000000  1.0
  0.147000000  0.637000000  0.132000000  1.0
  0.147000000  0.637000000  0.232000000  1.0
  0.147000000  0.637000000  0.332000000  1.0
  0.147000000  0.637000000  0.432000000  1.0
  0.147000000  0.637000000  0.532000000  1.0
  0.147000000  0.637000000  0.632000000  1.0
  0.147000000  0.637000000  0.732000000  1.0
  0.147000000  0.637000000  0.832000000  1.0
  0.147000000  0.637000000  0.932000000  1.0
  0.147000000  0.737000000  0.032000000  1.0
  0.147000000  0.737000000  0.132000000  1.0
  0.147000000  0.737000000  0.232000000  1.0
  0.147000000  0.737000000  0.332000000  1.0
  0.147000000  0.737000000  0.432000000  1.0
  0.147000000  0.737000000  0.532000000  1.0
  0.147000000  0.737000000  0.632000000  1.0
  0.147000000  0.737000000  0.732000000  1.0
  0.147000000  0.737000000  0.832000000  1.0
  0.147000000  0.737000000  0.932000000  1.0
  0.147000000  0.837000000  0.032000000  1.0
  0.147000000  0.837000000  0.132000000  1.0
  0.147000000  0.837000000  0.232000000  1.0
  0.147000000  0.837000000  0.332000000  1.0
  0.147000000  0.837000000  0.432000000  1.0
  0.147000000  0.837000000  0.532000000  1.0
  0.147000000  0.837000000  0.632000000  1.0
  0.147000000  0.837000000  0.732000000  1.0
  0.147000000  0.837000000  0.832000000  1.0
  0.147000000  0.837000000  0.932000000  1.0
  0.147000000  0.937000000  0.032000000  1.0
  0.147000000  0.937000000  0.132000000  1.0
  0.147000000  0.937000000  0.232000000  1.0
  0.147000000  0.937000000  0.332000000  1.0
  0.147000000  0.937000000  0.432000000  1.0
  0.147000000  0.937000000  0.532000000  1.0
  0.147000000  0.937000000  0.632000000  1.0
  0.147000000  0.937000000  0.732000000  1.0
  0.147000000  0.937000000  0.832000000  1.0
  0.147000000  0.937000000  0.932000000  1.0
  0.247000000  0.037000000  0.032000000  1.0
  0.247000000  0.037000000  0.132000000  1.0
  0.247000000  0.037000000  0.232000000  1.0
  0.247000000  0.037000000  0.332000000  1.0
  0.247000000  0.037000000  0.432000000  1.0
  0.247000000  0.037000000  0.532000000  1.0
  0.247000000  0.037000000  0.632000000  1.0
  0.247000000  0.037000000  0.732000000  1.0
  0.247000000  0.037000000  0.832000000  1.0
  0.247000000  0.037000000  0.932000000  1.0
  0.247000000  0.137000000  0.032000000  1.0
  0.247000000  0.137000000  0.132000000  1.0
  0.247000000  0.137000000  0.232000000  1.0
  0.247000000  0.137000000  0.332000000  1.0
  0.247000000  0.137000000  0.432000000  1.0
  0.247000000  0.137000000  0.532000000  1.0
  0.247000000  0.137000000  0.632000000  1.0
  0.247000000  0.137000000  0.732000000  1.0
  0.247000000  0.137000000  0.832000000  1.0
  0.247000000  0.137000000  0.932000000  1.0
  0.247000000  0.237000000  0.032000000  1.0
  0.247000000  0.237000000  0.132000000  1.0
  0.247000000  0.237000000  0.232000000  1.0
  0.247000000  0.237000000  0.332000000  1.0
  0.247000000  0.237000000  0.432000000  1.0
  0.247000000  0.237000000  0.532000000  1.0
  0.247000000  0.237000000  0.632000000  1.0
  0.247000000  0.237000000  0.732000000  1.0
  0.247000000  0.237000000  0.832000000  1.0
  0.247000000  0.237000000  0.932000000  1.0
  0.247000000  0.337000000  0.032000000  1.0
  0.247000000  0.337000000  0.132000000  1.0
  0.247000000  0.337000000  0.232000000  1.0
  0.247000000  0.337000000  0.332000000  1.0
  0.247000000  0.337000000  0.432000000  1.0
  0.247000000  0.337000000  0.532000000  1.0
  0.247000000  0.337000000  0.632000000  1.0
  0.247000000  0.337000000  0.732000000  1.0
  0.247000000  0.337000000  0.832000000  1.0
  0.247000000  0.337000000  0.932000000  1.0
  0.247000000  0.437000000  0.032000000  1.0
  0.247000000  0.437000000  0.132000000  1.0
  0.247000000  0.437000000  0.232000000  1.0
  0.247000000  0.437000000  0.332000000  1.0
  0.247000000  0.437000000  0.432000000  1.0
  0.247000000  0.437000000  0.532000000  1.0
  0.247000000  0.437000000  0.632000000  1.0
  0.247000000  0.437000000  0.732000000  1.0
  0.247000000  0.437000000  0.832000000  1.0
  0.247000000  0.437000000  0.932000000  1.0
  0.247000000  0.537000000  0.032000000  1.0
  0.247000000  0.537000000  0.132000000  1.0
  0.247000000  0.537000000  0.232000000  1.0
  0.247000000  0.537000000  0.332000000  1.0
  0.247000000  0.537000000  0.432000000  1.0
  0.247000000  0.537000000  0.532000000  1.0
  0.247000000  0.537000000  0.632000000  1.0
  0.247000000  0.537000000  0.732000000  1.0
  0.247000000  0.537000000  0.832000000  1.0
  0.247000000  0.537000000  0.932000000  1.0
  0.247000000  0.637000000  0.032000000  1.0
  0.247000000  0.637000000  0.132000000  1.0
  0.247000000  0.637000000  0.232000000  1.0
  0.247000000  0.637000000  0.332000000  1.0
  0.247000000  0.637000000  0.432000000  1.0
  0.247000000  0.637000000  0.532000000  1.0
  0.247000000  0.637000000  0.632000000  1.0
  0.247000000  0.637000000  0.732000000  1.0
  0.247000000  0.637000000  0.832000000  1.0
  0.247000000  0.637000000  0.932000000  1.0
  0.247000000  0.737000000  0.032000000  1.0
  0.247000000  0.737000000  0.132000000  1.0
  0.247000000  0.737000000  0.232000000  1.0
  0.247000000  0.737000000  0.332000000  1.0
  0.247000000  0.737000000  0.432000000  1.0
  0.247000000  0.737000000  0.532000000  1.0
  0.247000000  0.737000000  0.632000000  1.0
  0.247000000  0.737000000  0.732000000  1.0
  0.247000000  0.737000000  0.832000000  1.0
  0.247000000  0.737000000  0.932000000  1.0
  0.247000000  0.837000000  0.032000000  1.0
  0.247000000  0.837000000  0.132000000  1.0
  0.247000000  0.837000000  0.232000000  1.0
  0.247000000  0.837000000  0.332000000  1.0
  0.247000000  0.837000000  0.432000000  1.0
  0.247000000  0.837000000  0.532000000  1.0
  0.247000000  0.837000000  0.632000000  1.0
  0.247000000  0.837000000  0.732000000  1.0
  0.247000000  0.837000000  0.832000000  1.0
  0.247000000  0.837000000  0.932000000  1.0
  0.247000000  0.937000000  0.032000000  1.0
  0.247000000  0.937000000  0.132000000  1.0
  0.247000000  0.937000000  0.232000000  1.0
  0.247000000  0.937000000  0.332000000  1.0
  0.247000000  0.937000000  0.432000000  1.0
  0.247000000  0.937000000  0.532000000  1.0
  0.247000000  0.937000000  0.632000000  1.0
  0.247000000  0.937000000  0.732000000  1.0
  0.247000000  0.937000000  0.832000000  1.0
  0.247000000  0.937000000  0.932000000  1.0
  0.347000000  0.037000000  0.032000000  1.0
  0.347000000  0.037000000  0.132000000  1.0
  0.347000000  0.037000000  0.232000000  1.0
  0.347000000  0.037000000  0.332000000  1.0
  0.347000000  0.037000000  0.432000000  1.0
  0.347000000  0.037000000  0.532000000  1.0
  0.347000000  0.037000000  0.632000000  1.0
  0.347000000  0.037000000  0.732000000  1.0
  0.347000000  0.037000000  0.832000000  1.0
  0.347000000  0.037000000  0.932000000  1.0
  0.347000000  0.137000000  0.032000000  1.0
  0.347000000  0.137000000  0.132000000  1.0
  0.347000000  0.137000000  0.232000000  1.0
  0.347000000  0.137000000  0.332000000  1.0
  0.347000000  0.137000000  0.432000000  1.0
  0.347000000  0.137000000  0.532000000  1.0
  0.347000000  0.137000000  0.632000000  1.0
  0.347000000  0.137000000  0.732000000  1.0
  0.347000000  0.137000000  0.832000000  1.0
  0.347000000  0.137000000  0.932000000  1.0
  0.347000000  0.237000000  0.032000000  1.0
  0.347000000  0.237000000  0.132000000  1.0
  0.347000000  0.237000000  0.232000000  1.0
  0.347000000  0.237000000  0.332000000  1.0
  0.347000000  0.237000000  0.432000000  1.0
  0.347000000  0.237000000  0.532000000  1.0
  0.347000000  0.237000000  0.632000000  1.0
  0.347000000  0.237000000  0.732000000  1.0
  0.347000000  0.237000000  0.832000000  1.0
  0.347000000  0.237000000  0.932000000  1.0
  0.347000000  0.337000000  0.032000000  1.0
  0.347000000  0.337000000  0.132000000  1.0
  0.347000000  0.337000000  0.232000000  1.0
  0.347000000  0.337000000  0.332000000  1.0
  0.347000000  0.337000000  0.432000000  1.0
  0.347000000  0.337000000  0.532000000  1.0
  0.347000000  0.337000000  0.632000000  1.0
  0.347000000  0.337000000  0.732000000  1.0
  0.347000000  0.337000000  0.832000000  1.0
  0.347000000  0.337000000  0.932000000  1.0
  0.347000000  0.437000000  0.032000000  1.0
  0.347000000  0.437000000  0.132000000  1.0
  0.347000000  0.437000000  0.232000000  1.0
  0.347000000  0.437000000  0.332000000  1.0
  0.347000000  0.437000000  0.432000000  1.0
  0.347000000  0.437000000  0.532000000  1.0
  0.347000000  0.437000000  0.632000000  1.0
  0.347000000  0.437000000  0.732000000  1.0
  0.347000000  0.437000000  0.832000000  1.0
  0.347000000  0.437000000  0.932000000  1.0
  0.347000000  0.537000000  0.032000000  1.0
  0.347000000  0.537000000  0.132000000  1.0
  0.347000000  0.537000000  0.232000000  1.0
  0.347000000  0.537000000  0.332000000  1.0
  0.347000000  0.537000000  0.432000000  1.0
  0.347000000  0.537000000  0.532000000  1.0
  0.347000000  0.537000000  0.632000000  1.0
  0.347000000  0.537000000  0.732000000  1.0
  0.347000000  0.537000000  0.832000000  1.0
  0.347000000  0.537000000  0.932000000  1.0
  0.347000000  0.637000000  0.032000000  1.0
  0.347000000  0.637000000  0.132000000  1.0
  0.347000000  0.637000000  0.232000000  1.0
  0.347000000  0.637000000  0.332000000  1.0
  0.347000000  0.637000000  0.432000000  1.0
  0.347000000  0.637000000  0.532000000  1.0
  0.347000000  0.637000000  0.632000000  1.0
  0.347000000  0.637000000  0.732000000  1.0
  0.347000000  0.637000000  0.832000000  1.0
  0.347000000  0.637000000  0.932000000  1.0
  0.347000000  0.737000000  0.032000000  1.0
  0.347000000  0.737000000  0.132000000  1.0
  0.347000000  0.737000000  0.232000000  1.0
  0.347000000  0.737000000  0.332000000  1.0
  0.347000000  0.737000000  0.432000000  1.0
  0.347000000  0.737000000  0.532000000  1.0
  0.347000000  0.737000000  0.632000000  1.0
  0.347000000  0.737000000  0.732000000  1.0
  0.347000000  0.737000000  0.832000000  1.0
  0.347000000  0.737000000  0.932000000  1.0
  0.347000000  0.837000000  0.032000000  1.0
  0.347000000  0.837000000  0.132000000  1.0
  0.347000000  0.837000000  0.232000000  1.0
  0.347000000  0.837000000  0.332000000  1.0
  0.347000000  0.837000000  0.432000000  1.0
  0.347000000  0.837000000  0.532000000  1.0
  0.347000000  0.837000000  0.632000000  1.0
  0.347000000  0.837000000  0.732000000  1.0
  0.347000000  0.837000000  0.832000000  1.0
  0.347000000  0.837000000  0.932000000  1.0
  0.347000000  0.937000000  0.032000000  1.0
  0.347000000  0.937000000  0.132000000  1.0
  0.347000000  0.937000000  0.232000000  1.0
  0.347000000  0.937000000  0.332000000  1.0
  0.347000000  0.937000000  0.432000000  1.0
  0.347000000  0.937000000  0.532000000  1.0
  0.347000000  0.937000000  0.632000000  1.0
  0.347000000  0.937000000  0.732000000  1.0
  0.347000000  0.937000000  0.832000000  1.0
  0.347000000  0.937000000  0.932000000  1.0
  0.447000000  0.037000000  0.032000000  1.0
  0.447000000  0.037000000  0.132000000  1.0
  0.447000000  0.037000000  0.232000000  1.0
  0.447000000  0.037000000  0.332000000  1.0
  0.447000000  0.037000000  0.432000000  1.0
  0.447000000  0.037000000  0.532000000  1.0
  0.447000000  0.037000000  0.632000000  1.0
  0.447000000  0.037000000  0.732000000  1.0
  0.447000000  0.037000000  0.832000000  1.0
  0.447000000  0.037000000  0.932000000  1.0
  0.447000000  0.137000000  0.032000000  1.0
  0.447000000  0.137000000  0.132000000  1.0
  0.447000000  0.137000000  0.232000000  1.0
  0.447000000  0.137000000  0.332000000  1.0
  0.447000000  0.137000000  0.432000000  1.0
  0.447000000  0.137000000  0.532000000  1.0
  0.447000000  0.137000000  0.632000000  1.0
  0.447000000  0.137000000  0.732000000  1.0
  0.447000000  0.137000000  0.832000000  1.0
  0.447000000  0.137000000  0.932000000  1.0
  0.447000000  0.237000000  0.032000000  1.0
  0.447000000  0.237000000  0.132000000  1.0
  0.447000000  0.237000000  0.232000000  1.0
  0.447000000  0.237000000  0.332000000  1.0
  0.447000000  0.237000000  0.432000000  1.0
  0.447000000  0.237000000  0.532000000  1.0
  0.447000000  0.237000000  0.632000000  1.0
  0.447000000  0.237000000  0.732000000  1.0
  0.447000000  0.237000000  0.832000000  1.0
  0.447000000  0.237000000  0.932000000  1.0
  0.447000000  0.337000000  0.032000000  1.0
  0.447000000  0.337000000  0.132000000  1.0
  0.447000000  0.337000000  0.232000000  1.0
  0.447000000  0.337000000  0.332000000  1.0
  0.447000000  0.337000000  0.432000000  1.0
  0.447000000  0.337000000  0.532000000  1.0
  0.447000000  0.337000000  0.632000000  1.0
  0.447000000  0.337000000  0.732000000  1.0
  0.447000000  0.337000000  0.832000000  1.0
  0.447000000  0.337000000  0.932000000  1.0
  0.447000000  0.437000000  0.032000000  1.0
  0.447000000  0.437000000  0.132000000  1.0
  0.447000000  0.437000000  0.232000000  1.0
  0.447000000  0.437000000  0.332000000  1.0
  0.447000000  0.437000000  0.432000000  1.0
  0.447000000  0.437000000  0.532000000  1.0
  0.447000000  0.437000000  0.632000000  1.0
  0.447000000  0.437000000  0.732000000  1.0
  0.447000000  0.437000000  0.832000000  1.0
  0.447000000  0.437000000  0.932000000  1.0
  0.447000000  0.537000000  0.032000000  1.0
  0.447000000  0.537000000  0.132000000  1.0
  0.447000000  0.537000000  0.232000000  1.0
  0.447000000  0.537000000  0.332000000  1.0
  0.447000000  0.537000000  0.432000000  1.0
  0.447000000  0.537000000  0.532000000  1.0
  0.447000000  0.537000000  0.632000000  1.0
  0.447000000  0.537000000  0.732000000  1.0
  0.447000000  0.537000000  0.832000000  1.0
  0.447000000  0.537000000  0.932000000  1.0
  0.447000000  0.637000000  0.032000000  1.0
  0.447000000  0.637000000  0.132000000  1.0
  0.447000000  0.637000000  0.232000000  1.0
  0.447000000  0.637000000  0.332000000  1.0
  0.447000000  0.637000000  0.432000000  1.0
  0.447000000  0.637000000  0.532000000  1.0
  0.447000000  0.637000000  0.632000000  1.0
  0.447000000  0.637000000  0.732000000  1.0
  0.447000000  0.637000000  0.832000000  1.0
  0.447000000  0.637000000  0.932000000  1.0
  0.447000000  0.737000000  0.032000000  1.0
  0.447000000  0.737000000  0.132000000  1.0
  0.447000000  0.737000000  0.232000000  1.0
  0.447000000  0.737000000  0.332000000  1.0
  0.447000000  0.737000000  0.432000000  1.0
  0.447000000  0.737000000  0.532000000  1.0
  0.447000000  0.737000000  0.632000000  1.0
  0.447000000  0.737000000  0.732000000  1.0
  0.447000000  0.737000000  0.832000000  1.0
  0.447000000  0.737000000  0.932000000  1.0
  0.447000000  0.837000000  0.032000000  1.0
  0.447000000  0.837000000  0.132000000  1.0
  0.447000000  0.837000000  0.232000000  1.0
  0.447000000  0.837000000  0.332000000  1.0
  0.447000000  0.837000000  0.432000000  1.0
  0.447000000  0.837000000  0.532000000  1.0
  0.447000000  0.837000000  0.632000000  1.0
  0.447000000  0.837000000  0.732000000  1.0
  0.447000000  0.837000000  0.832000000  1.0
  0.447000000  0.837000000  0.932000000  1.0
  0.447000000  0.937000000  0.032000000  1.0
  0.447000000  0.937000000  0.132000000  1.0
  0.447000000  0.937000000  0.232000000  1.0
  0.447000000  0.937000000  0.332000000  1.0
  0.447000000  0.937000000  0.432000000  1.0
  0.447000000  0.937000000  0.532000000  1.0
  0.447000000  0.937000000  0.632000000  1.0
  0.447000000  0.937000000  0.732000000  1.0
  0.447000000  0.937000000  0.832000000  1.0
  0.447000000  0.937000000  0.932000000  1.0
  0.547000000  0.037000000  0.032000000  1.0
  0.547000000  0.037000000  0.132000000  1.0
  0.547000000  0.037000000  0.232000000  1.0
  0.547000000  0.037000000  0.332000000  1.0
  0.547000000  0.037000000  0.432000000  1.0
  0.547000000  0.037000000  0.532000000  1.0
  0.547000000  0.037000000  0.632000000  1.0
  0.547000000  0.037000000  0.732000000  1.0
  0.547000000  0.037000000  0.832000000  1.0
  0.547000000  0.037000000  0.932000000  1.0
  0.547000000  0.137000000  0.032000000  1.0
  0.547000000  0.137000000  0.132000000  1.0
  0.547000000  0.137000000  0.232000000  1.0
  0.547000000  0.137000000  0.332000000  1.0
  0.547000000  0.137000000  0.432000000  1.0
  0.547000000  0.137000000  0.532000000  1.0
  0.547000000  0.137000000  0.632000000  1.0
  0.547000000  0.137000000  0.732000000  1.0
  0.547000000  0.137000000  0.832000000  1.0
  0.547000000  0.137000000  0.932000000  1.0
  0.547000000  0.237000000  0.032000000  1.0
  0.547000000  0.237000000  0.132000000  1.0
  0.547000000  0.237000000  0.232000000  1.0
  0.547000000  0.237000000  0.332000000  1.0
  0.547000000  0.237000000  0.432000000  1.0
  0.547000000  0.237000000  0.532000000  1.0
  0.547000000  0.237000000  0.632000000  1.0
  0.547000000  0.237000000  0.732000000  1.0
  0.547000000  0.237000000  0.832000000  1.0
  0.547000000  0.237000000  0.932000000  1.0
  0.547000000  0.337000000  0.032000000  1.0
  0.547000000  0.337000000  0.132000000  1.0
  0.547000000  0.337000000  0.232000000  1.0
  0.547000000  0.337000000  0.332000000  1.0
  0.547000000  0.337000000  0.432000000  1.0
  0.547000000  0.337000000  0.532000000  1.0
  0.547000000  0.337000000  0.632000000  1.0
  0.547000000  0.337000000  0.732000000  1.0
  0.547000000  0.337000000  0.832000000  1.0
  0.547000000  0.337000000  0.932000000  1.0
  0.547000000  0.437000000  0.032000000  1.0
  0.547000000  0.437000000  0.132000000  1.0
  0.547000000  0.437000000  0.232000000  1.0
  0.547000000  0.437000000  0.332000000  1.0
  0.547000000  0.437000000  0.432000000  1.0
  0.547000000  0.437000000  0.532000000  1.0
  0.547000000  0.437000000  0.632000000  1.0
  0.547000000  0.437000000  0.732000000  1.0
  0.547000000  0.437000000  0.832000000  1.0
  0.547000000  0.437000000  0.932000000  1.0
  0.547000000  0.537000000  0.032000000  1.0
  0.547000000  0.537000000  0.132000000  1.0
  0.547000000  0.537000000  0.232000000  1.0
  0.547000000  0.537000000  0.332000000  1.0
  0.547000000  0.537000000  0.432000000  1.0
  0.547000000  0.537000000  0.532000000  1.0
  0.547000000  0.537000000  0.632000000  1.0
  0.547000000  0.537000000  0.732000000  1.0
  0.547000000  0.537000000  0.832000000  1.0
  0.547000000  0.537000000  0.932000000  1.0
  0.547000000  0.637000000  0.032000000  1.0
  0.547000000  0.637000000  0.132000000  1.0
  0.547000000  0.637000000  0.232000000  1.0
  0.547000000  0.637000000  0.332000000  1.0
  0.547000000  0.637000000  0.432000000  1.0
  0.547000000  0.637000000  0.532000000  1.0
  0.547000000  0.637000000  0.632000000  1.0
  0.547000000  0.637000000  0.732000000  1.0
  0.547000000  0.637000000  0.832000000  1.0
  0.547000000  0.637000000  0.932000000  1.0
  0.547000000  0.737000000  0.032000000  1.0
  0.547000000  0.737000000  0.132000000  1.0
  0.547000000  0.737000000  0.232000000  1.0
  0.547000000  0.737000000  0.332000000  1.0
  0.547000000  0.737000000  0.432000000  1.0
  0.547000000  0.737000000  0.532000000  1.0
  0.547000000  0.737000000  0.632000000  1.0
  0.547000000  0.737000000  0.732000000  1.0
  0.547000000  0.737000000  0.832000000  1.0
  0.547000000  0.737000000  0.932000000  1.0
  0.547000000  0.837000000  0.032000000  1.0
  0.547000000  0.837000000  0.132000000  1.0
  0.547000000  0.837000000  0.232000000  1.0
  0.547000000  0.837000000  0.332000000  1.0
  0.547000000  0.837000000  0.432000000  1.0
  0.547000000  0.837000000  0.532000000  1.0
  0.547000000  0.837000000  0.632000000  1.0
  0.547000000  0.837000000  0.732000000  1.0
  0.547000000  0.837000000  0.832000000  1.0
  0.547000000  0.837000000  0.932000000  1.0
  0.547000000  0.937000000  0.032000000  1.0
  0.547000000  0.937000000  0.132000000  1.0
  0.547000000  0.937000000  0.232000000  1.0
  0.547000000  0.937000000  0.332000000  1.0
  0.547000000  0.937000000  0.432000000  1.0
  0.547000000  0.937000000  0.532000000  1.0
  0.547000000  0.937000000  0.632000000  1.0
  0.547000000  0.937000000  0.732000000  1.0
  0.547000000  0.937000000  0.832000000  1.0
  0.547000000  0.937000000  0.932000000  1.0
  0.647000000  0.037000000  0.032000000  1.0
  0.647000000  0.037000000  0.132000000  1.0
  0.647000000  0.037000000  0.232000000  1.0
  0.647000000  0.037000000  0.332000000  1.0
  0.647000000  0.037000000  0.432000000  1.0
  0.647000000  0.037000000  0.532000000  1.0
  0.647000000  0.037000000  0.632000000  1.0
  0.647000000  0.037000000  0.732000000  1.0
  0.647000000  0.037000000  0.832000000  1.0
  0.647000000  0.037000000  0.932000000  1.0
  0.647000000  0.137000000  0.032000000  1.0
  0.647000000  0.137000000  0.132000000  1.0
  0.647000000  0.137000000  0.232000000  1.0
  0.647000000  0.137000000  0.332000000  1.0
  0.647000000  0.137000000  0.432000000  1.0
  0.647000000  0.137000000  0.532000000  1.0
  0.647000000  0.137000000  0.632000000  1.0
  0.647000000  0.137000000  0.732000000  1.0
  0.647000000  0.137000000  0.832000000  1.0
  0.647000000  0.137000000  0.932000000  1.0
  0.647000000  0.237000000  0.032000000  1.0
  0.647000000  0.237000000  0.132000000  1.0
  0.647000000  0.237000000  0.232000000  1.0
  0.647000000  0.237000000  0.332000000  1.0
  0.647000000  0.237000000  0.432000000  1.0
  0.647000000  0.237000000  0.532000000  1.0
  0.647000000  0.237000000  0.632000000  1.0
  0.647000000  0.237000000  0.732000000  1.0
  0.647000000  0.237000000  0.832000000  1.0
  0.647000000  0.237000000  0.932000000  1.0
  0.647000000  0.337000000  0.032000000  1.0
  0.647000000  0.337000000  0.132000000  1.0
  0.647000000  0.337000000  0.232000000  1.0
  0.647000000  0.337000000  0.332000000  1.0
  0.647000000  0.337000000  0.432000000  1.0
  0.647000000  0.337000000  0.532000000  1.0
  0.647000000  0.337000000  0.632000000  1.0
  0.647000000  0.337000000  0.732000000  1.0
  0.647000000  0.337000000  0.832000000  1.0
  0.647000000  0.337000000  0.932000000  1.0
  0.647000000  0.437000000  0.032000000  1.0
  0.647000000  0.437000000  0.132000000  1.0
  0.647000000  0.437000000  0.232000000  1.0
  0.647000000  0.437000000  0.332000000  1.0
  0.647000000  0.437000000  0.432000000  1.0
  0.647000000  0.437000000  0.532000000  1.0
  0.647000000  0.437000000  0.632000000  1.0