&CONTROL
   prefix = 'Zn2O2'
   calculation = 'bands'
   verbosity = 'high'
   restart_mode = 'from_scratch'
   wf_collect = .false.
   tstress = .false.
   tprnfor = .false.
   outdir = '.'
   wfcdir = '.'
   pseudo_dir = '../../../../pseudo/semicore/ld1'
/
&SYSTEM
   ibrav = 0
   a = 1.0
   nat = 4
   ntyp = 2
   nbnd = 26
   ecutwfc = 400.0
   nr1 = 80
   nr2 = 80
   nr3 = 128
/
&ELECTRONS
   electron_maxstep = 100
   conv_thr = 1.0d-10
   mixing_mode = 'plain'
   mixing_beta = 0.7
   mixing_ndim = 8
   diagonalization = 'david'
   diago_david_ndim = 4
   diago_full_acc = .true.
/
CELL_PARAMETERS alat
   3.250000000   0.000000000   0.000000000
  -1.625000000   2.814582562   0.000000000
   0.000000000   0.000000000   5.200000000
ATOMIC_SPECIES
  Zn  65.380  Zn.pw-spn-nc.UPF
   O  15.999  O.pw-n-nc.UPF
ATOMIC_POSITIONS crystal
Zn       0.666666667   0.333333333   0.000000000
Zn       0.333333333   0.666666667   0.500000000
O        0.666666667   0.333333333   0.618000000
O        0.333333333   0.666666667   0.118000000
K_POINTS crystal
72
0.373563 0.252874 0.000000 0.027778
0.367816 0.264368 0.000000 0.027778
0.362069 0.275862 0.000000 0.027778
0.356322 0.287356 0.000000 0.027778
0.350575 0.298851 0.000000 0.027778
0.344828 0.310345 0.000000 0.027778
0.339080 0.321839 0.000000 0.027778
0.333333 0.333333 0.000000 0.027778
0.327586 0.327586 0.000000 0.027778
0.321839 0.321839 0.000000 0.027778
0.316092 0.316092 0.000000 0.027778
0.310345 0.310345 0.000000 0.027778
0.304598 0.304598 0.000000 0.027778
0.298851 0.298851 0.000000 0.027778
0.293103 0.293103 0.000000 0.027778
0.287356 0.287356 0.000000 0.027778
0.281609 0.281609 0.000000 0.027778
0.275862 0.275862 0.000000 0.027778
0.270115 0.270115 0.000000 0.027778
0.264368 0.264368 0.000000 0.027778
0.258621 0.258621 0.000000 0.027778
0.252874 0.252874 0.000000 0.027778
0.247126 0.247126 0.000000 0.027778
0.241379 0.241379 0.000000 0.027778
0.235632 0.235632 0.000000 0.027778
0.229885 0.229885 0.000000 0.027778
0.224138 0.224138 0.000000 0.027778
0.218391 0.218391 0.000000 0.027778
0.212644 0.212644 0.000000 0.027778
0.206897 0.206897 0.000000 0.027778
0.201149 0.201149 0.000000 0.027778
0.195402 0.195402 0.000000 0.027778
0.189655 0.189655 0.000000 0.027778
0.183908 0.183908 0.000000 0.027778
0.178161 0.178161 0.000000 0.027778
0.172414 0.172414 0.000000 0.027778
0.166667 0.166667 0.000000 0.027778
0.160920 0.160920 0.000000 0.027778
0.155172 0.155172 0.000000 0.027778
0.149425 0.149425 0.000000 0.027778
0.143678 0.143678 0.000000 0.027778
0.137931 0.137931 0.000000 0.027778
0.132184 0.132184 0.000000 0.027778
0.126437 0.126437 0.000000 0.027778
0.120690 0.120690 0.000000 0.027778
0.114943 0.114943 0.000000 0.027778
0.109195 0.109195 0.000000 0.027778
0.103448 0.103448 0.000000 0.027778
0.097701 0.097701 0.000000 0.027778
0.091954 0.091954 0.000000 0.027778
0.086207 0.086207 0.000000 0.027778
0.080460 0.080460 0.000000 0.027778
0.074713 0.074713 0.000000 0.027778
0.068966 0.068966 0.000000 0.027778
0.063218 0.063218 0.000000 0.027778
0.057471 0.057471 0.000000 0.027778
0.051724 0.051724 0.000000 0.027778
0.045977 0.045977 0.000000 0.027778
0.040230 0.040230 0.000000 0.027778
0.034483 0.034483 0.000000 0.027778
0.028736 0.028736 0.000000 0.027778
0.022989 0.022989 0.000000 0.027778
0.017241 0.017241 0.000000 0.027778
0.011494 0.011494 0.000000 0.027778
0.005747 0.005747 0.000000 0.027778
0.000000 0.000000 0.000000 0.027778
0.000000 0.000000 0.018519 0.027778
0.000000 0.000000 0.037037 0.027778
0.000000 0.000000 0.055556 0.027778
0.000000 0.000000 0.074074 0.027778
0.000000 0.000000 0.092593 0.027778
0.000000 0.000000 0.111111 0.027778
